!   File created by MacMolPlt 7.7.2
 $CONTRL SCFTYP=RHF RUNTYP=ENERGY MAXIT=30 MULT=1 $END
 $CONTRL VBTYP=XMVB   COORD=UNIQUE                 $END
 $SYSTEM TIMLIM=525600 MEMORY=1000000 $END
 $BASIS GBASIS=N31 NGAUSS=6 $END
 $GUESS GUESS=MOREAD
 NORB=47
 $END
 $SCF DIRSCF=.TRUE. $END
 $DATA 
anthracene opt C2H gaussian
C1 
C  6.0     0.00000    -2.47682     -1.40470  
C  6.0    -0.00000    -0.00000      1.40119  
C  6.0     0.00000    -2.47682      1.40470  
C  6.0     0.00000     0.00000     -1.40119  
C  6.0     0.00000    -3.65503     -0.71227  
C  6.0    -0.00000     1.22202      0.72155  
C  6.0     0.00000    -3.65503      0.71227  
C  6.0    -0.00000     1.22202     -0.72155  
C  6.0    -0.00000    -1.22202      0.72155  
C  6.0     0.00000    -1.22202     -0.72155  
C  6.0    -0.00000     3.65503      0.71227  
C  6.0     0.00000     3.65503     -0.71227  
C  6.0    -0.00000     2.47682      1.40470  
C  6.0     0.00000     2.47682     -1.40470  
H  1.0     0.00000     2.47711     -2.49085  
H  1.0     0.00000    -2.47711      2.49085  
H  1.0     0.00000     0.00000     -2.48817  
H  1.0    -0.00000    -0.00000      2.48817  
H  1.0    -0.00000     2.47711      2.49085  
H  1.0     0.00000    -2.47711     -2.49085  
H  1.0    -0.00000     4.60051      1.24509  
H  1.0     0.00000    -4.60051     -1.24509  
H  1.0     0.00000     4.60051     -1.24509  
H  1.0     0.00000    -4.60051      1.24509  
 $END
E(RHF)=     -535.8100732703, E(NUC)=  766.3548992199,   10 ITERS
 $VEC   
 1  1 2.41700628E-02 1.49409961E-04 0.00000000E+00-1.27795417E-04-6.84782055E-05
 1  2 2.14970763E-03 0.00000000E+00 1.51154770E-03 3.79194754E-04 6.27828548E-02
 1  3 5.88975197E-04 0.00000000E+00 0.00000000E+00 1.73959014E-04 5.28785361E-03
 1  4 0.00000000E+00 0.00000000E+00-1.41707988E-03 2.41700628E-02 1.49409961E-04
 1  5 0.00000000E+00-1.27795417E-04 6.84782055E-05 2.14970763E-03 0.00000000E+00
 1  6 1.51154770E-03-3.79194754E-04 6.27828548E-02 5.88975197E-04 0.00000000E+00
 1  7 0.00000000E+00-1.73959014E-04 5.28785361E-03 0.00000000E+00 0.00000000E+00
 1  8 1.41707988E-03 9.55539827E-04-6.38033886E-05 0.00000000E+00-4.77306819E-05
 1  9 1.56875110E-05 3.82322317E-04 0.00000000E+00 9.87380568E-05-2.12873519E-04
 1 10 4.95425692E-01 1.21718506E-02 0.00000000E+00 4.08273308E-05 1.03343284E-04
 1 11-7.67438989E-03 0.00000000E+00 2.18746077E-04-1.41082443E-03 9.55539827E-04
 1 12-6.38033886E-05 0.00000000E+00-4.77306819E-05-1.56875110E-05 3.82322317E-04
 1 13 0.00000000E+00 9.87380568E-05 2.12873519E-04 4.95425692E-01 1.21718506E-02
 1 14 0.00000000E+00 4.08273308E-05-1.03343284E-04-7.67438989E-03 0.00000000E+00
 1 15 2.18746077E-04 1.41082443E-03 4.95425692E-01 1.21718506E-02 0.00000000E+00
 1 16-4.08273308E-05 1.03343284E-04-7.67438989E-03 0.00000000E+00-2.18746077E-04
 1 17-1.41082443E-03 4.95425692E-01 1.21718506E-02 0.00000000E+00-4.08273308E-05
 1 18-1.03343284E-04-7.67438989E-03 0.00000000E+00-2.18746077E-04 1.41082443E-03
 1 19 9.55539827E-04-6.38033886E-05 0.00000000E+00 4.77306819E-05-1.56875110E-05
 1 20 3.82322317E-04 0.00000000E+00-9.87380568E-05 2.12873519E-04 9.55539827E-04
 1 21-6.38033886E-05 0.00000000E+00 4.77306819E-05 1.56875110E-05 3.82322317E-04
 1 22 0.00000000E+00-9.87380568E-05-2.12873519E-04 2.41700628E-02 1.49409961E-04
 1 23 0.00000000E+00 1.27795417E-04 6.84782055E-05 2.14970763E-03 0.00000000E+00
 1 24-1.51154770E-03-3.79194754E-04 2.41700628E-02 1.49409961E-04 0.00000000E+00
 1 25 1.27795417E-04-6.84782055E-05 2.14970763E-03 0.00000000E+00-1.51154770E-03
 1 26 3.79194754E-04-1.00161719E-04 4.70740344E-05-1.00161719E-04 4.70740344E-05
 1 27-1.20147495E-04 1.59516742E-04-1.20147495E-04 1.59516742E-04-1.00161719E-04
 1 28 4.70740344E-05-1.00161719E-04 4.70740344E-05-1.05165616E-05 4.97651243E-05
 1 29-1.05165616E-05 4.97651243E-05-1.05165616E-05 4.97651243E-05-1.05165616E-05
 1 30 4.97651243E-05
 2  1-2.43392485E-02-2.04422748E-04-0.00000000E+00 1.16535554E-04 9.02255182E-05
 2  2-1.86762962E-03-0.00000000E+00-6.72393630E-04-6.07536034E-04-0.00000000E+00
 2  3-0.00000000E+00-0.00000000E+00-2.85001760E-04-0.00000000E+00-0.00000000E+00
 2  4-0.00000000E+00 2.13128068E-03-0.00000000E+00-2.43392485E-02-2.04422748E-04
 2  5-0.00000000E+00 1.16535554E-04-9.02255182E-05-1.86762962E-03-0.00000000E+00
 2  6-6.72393630E-04 6.07536034E-04-0.00000000E+00-0.00000000E+00-0.00000000E+00
 2  7-2.85001760E-04-0.00000000E+00-0.00000000E+00-0.00000000E+00 2.13128068E-03
 2  8-0.00000000E+00-9.34507376E-04 5.63309017E-05-0.00000000E+00 6.81585529E-05
 2  9-1.37224567E-05 2.16436826E-04-0.00000000E+00 1.97602063E-05-2.09959598E-05
 2 10 4.97418799E-01 1.22934952E-02-0.00000000E+00-7.58723514E-05 6.57509334E-05
 2 11-6.65002083E-03-0.00000000E+00 1.66830435E-04-9.44230371E-04-9.34507376E-04
 2 12 5.63309017E-05-0.00000000E+00 6.81585528E-05 1.37224567E-05 2.16436826E-04
 2 13-0.00000000E+00 1.97602063E-05 2.09959598E-05 4.97418799E-01 1.22934952E-02
 2 14-0.00000000E+00-7.58723514E-05-6.57509334E-05-6.65002083E-03-0.00000000E+00
 2 15 1.66830435E-04 9.44230371E-04-4.97418799E-01-1.22934952E-02-0.00000000E+00
 2 16-7.58723514E-05-6.57509334E-05 6.65002083E-03-0.00000000E+00 1.66830435E-04
 2 17 9.44230371E-04-4.97418799E-01-1.22934952E-02-0.00000000E+00-7.58723514E-05
 2 18 6.57509334E-05 6.65002083E-03-0.00000000E+00 1.66830435E-04-9.44230371E-04
 2 19 9.34507376E-04-5.63309017E-05-0.00000000E+00 6.81585529E-05-1.37224567E-05
 2 20-2.16436826E-04-0.00000000E+00 1.97602063E-05-2.09959598E-05 9.34507376E-04
 2 21-5.63309017E-05-0.00000000E+00 6.81585528E-05 1.37224567E-05-2.16436826E-04
 2 22-0.00000000E+00 1.97602063E-05 2.09959598E-05 2.43392485E-02 2.04422748E-04
 2 23-0.00000000E+00 1.16535554E-04 9.02255182E-05 1.86762962E-03-0.00000000E+00
 2 24-6.72393630E-04-6.07536034E-04 2.43392485E-02 2.04422748E-04-0.00000000E+00
 2 25 1.16535554E-04-9.02255182E-05 1.86762962E-03-0.00000000E+00-6.72393630E-04
 2 26 6.07536034E-04-3.12645671E-05 9.67678030E-05 3.12645671E-05-9.67678030E-05
 2 27-0.00000000E+00-0.00000000E+00-0.00000000E+00-0.00000000E+00-3.12645671E-05
 2 28 9.67678030E-05 3.12645670E-05-9.67678030E-05 1.93696046E-05 8.70975487E-05
 2 29-1.93696046E-05-8.70975487E-05 1.93696046E-05 8.70975487E-05-1.93696046E-05
 2 30-8.70975487E-05
 3  1 2.72242338E-02 2.43425442E-04-0.00000000E+00-1.08803529E-04-4.52379967E-05
 3  2 1.77978970E-03-0.00000000E+00 7.85080458E-04 8.76064122E-04-7.10312663E-02
 3  3-7.25425348E-04-0.00000000E+00-0.00000000E+00-8.64722887E-05-9.15682761E-03
 3  4-0.00000000E+00-0.00000000E+00 4.44151103E-03-2.72242338E-02-2.43425442E-04
 3  5-0.00000000E+00 1.08803529E-04-4.52379967E-05-1.77978970E-03-0.00000000E+00
 3  6-7.85080458E-04 8.76064122E-04 7.10312663E-02 7.25425348E-04-0.00000000E+00
 3  7-0.00000000E+00-8.64722887E-05 9.15682761E-03-0.00000000E+00-0.00000000E+00
 3  8 4.44151103E-03 2.01308247E-03 9.38060150E-05-0.00000000E+00-1.26466989E-05
 3  9 3.58778114E-05-9.44185355E-04-0.00000000E+00-4.62846695E-04-5.41724103E-04
 3 10-4.94879934E-01-1.32131373E-02-0.00000000E+00 2.87192066E-05 1.91867344E-04
 3 11 1.68503996E-02-0.00000000E+00-2.69612858E-03-3.16129506E-03-2.01308247E-03
 3 12-9.38060150E-05-0.00000000E+00 1.26466989E-05 3.58778114E-05 9.44185355E-04
 3 13-0.00000000E+00 4.62846695E-04-5.41724103E-04 4.94879934E-01 1.32131373E-02
 3 14-0.00000000E+00-2.87192065E-05 1.91867344E-04-1.68503996E-02-0.00000000E+00
 3 15 2.69612858E-03-3.16129506E-03-4.94879934E-01-1.32131373E-02-0.00000000E+00
 3 16-2.87192065E-05 1.91867344E-04 1.68503996E-02-0.00000000E+00 2.69612858E-03
 3 17-3.16129506E-03 4.94879934E-01 1.32131373E-02-0.00000000E+00 2.87192066E-05
 3 18 1.91867344E-04-1.68503996E-02-0.00000000E+00-2.69612858E-03-3.16129506E-03
 3 19-2.01308247E-03-9.38060150E-05-0.00000000E+00-1.26466989E-05 3.58778114E-05
 3 20 9.44185355E-04-0.00000000E+00-4.62846694E-04-5.41724103E-04 2.01308247E-03
 3 21 9.38060150E-05-0.00000000E+00 1.26466989E-05 3.58778115E-05-9.44185355E-04
 3 22-0.00000000E+00 4.62846694E-04-5.41724103E-04-2.72242338E-02-2.43425442E-04
 3 23-0.00000000E+00-1.08803529E-04-4.52379967E-05-1.77978970E-03-0.00000000E+00
 3 24 7.85080458E-04 8.76064122E-04 2.72242338E-02 2.43425442E-04-0.00000000E+00
 3 25 1.08803529E-04-4.52379967E-05 1.77978970E-03-0.00000000E+00-7.85080458E-04
 3 26 8.76064122E-04-7.76568155E-05 1.45058655E-04 7.76568155E-05-1.45058655E-04
 3 27-5.42823690E-05 8.16532905E-04 5.42823690E-05-8.16532905E-04 7.76568155E-05
 3 28-1.45058655E-04-7.76568155E-05 1.45058655E-04 2.02937317E-05 1.35658341E-04
 3 29-2.02937317E-05-1.35658341E-04-2.02937317E-05-1.35658341E-04 2.02937317E-05
 3 30 1.35658341E-04
 4  1-2.76625829E-02-1.98614821E-04-0.00000000E+00 4.38594248E-05 3.97529000E-05
 4  2-4.37771308E-03-0.00000000E+00-7.72624169E-05-2.68377555E-03-0.00000000E+00
 4  3-0.00000000E+00-0.00000000E+00 1.90128647E-04-0.00000000E+00-0.00000000E+00
 4  4-0.00000000E+00-7.23520556E-05-0.00000000E+00 2.76625829E-02 1.98614821E-04
 4  5-0.00000000E+00-4.38594247E-05 3.97529000E-05 4.37771308E-03-0.00000000E+00
 4  6 7.72624169E-05-2.68377555E-03-0.00000000E+00-0.00000000E+00-0.00000000E+00
 4  7-1.90128647E-04-0.00000000E+00-0.00000000E+00-0.00000000E+00 7.23520556E-05
 4  8-0.00000000E+00-2.15771392E-03-1.63750630E-04-0.00000000E+00 4.17356386E-05
 4  9-5.28115972E-05 2.90830405E-03-0.00000000E+00 1.54821594E-03 4.92240286E-04
 4 10-4.97412825E-01-1.32199893E-02-0.00000000E+00-2.62926359E-06 1.90395008E-04
 4 11 1.44211834E-02-0.00000000E+00 1.95992864E-03-4.55500340E-03 2.15771392E-03
 4 12 1.63750630E-04-0.00000000E+00-4.17356386E-05-5.28115972E-05-2.90830405E-03
 4 13-0.00000000E+00-1.54821594E-03 4.92240286E-04 4.97412825E-01 1.32199893E-02
 4 14-0.00000000E+00 2.62926359E-06 1.90395008E-04-1.44211834E-02-0.00000000E+00
 4 15-1.95992864E-03-4.55500340E-03 4.97412825E-01 1.32199893E-02-0.00000000E+00
 4 16-2.62926358E-06-1.90395008E-04-1.44211834E-02-0.00000000E+00 1.95992864E-03
 4 17 4.55500340E-03-4.97412825E-01-1.32199893E-02-0.00000000E+00 2.62926358E-06
 4 18-1.90395008E-04 1.44211834E-02-0.00000000E+00-1.95992864E-03 4.55500340E-03
 4 19-2.15771392E-03-1.63750630E-04-0.00000000E+00-4.17356386E-05 5.28115972E-05
 4 20 2.90830405E-03-0.00000000E+00-1.54821594E-03-4.92240286E-04 2.15771392E-03
 4 21 1.63750630E-04-0.00000000E+00 4.17356386E-05 5.28115972E-05-2.90830405E-03
 4 22-0.00000000E+00 1.54821594E-03-4.92240286E-04-2.76625829E-02-1.98614821E-04
 4 23-0.00000000E+00-4.38594247E-05-3.97529000E-05-4.37771308E-03-0.00000000E+00
 4 24 7.72624170E-05 2.68377555E-03 2.76625829E-02 1.98614821E-04-0.00000000E+00
 4 25 4.38594247E-05-3.97529000E-05 4.37771308E-03-0.00000000E+00-7.72624170E-05
 4 26 2.68377555E-03 3.35053135E-05 6.12356645E-04 3.35053135E-05 6.12356645E-04
 4 27-0.00000000E+00-0.00000000E+00-0.00000000E+00-0.00000000E+00-3.35053135E-05
 4 28-6.12356645E-04-3.35053135E-05-6.12356645E-04 2.91133091E-05 3.02801750E-04
 4 29 2.91133091E-05 3.02801750E-04-2.91133091E-05-3.02801750E-04-2.91133091E-05
 4 30-3.02801750E-04
 5  1 6.23841435E-02 1.42676591E-03-0.00000000E+00 2.11742625E-05-1.54650875E-05
 5  2-6.83375592E-04-0.00000000E+00-5.55223066E-04 8.44345901E-04 6.95099671E-01
 5  3 1.79733717E-02-0.00000000E+00-0.00000000E+00-3.29991735E-04-1.71879850E-02
 5  4-0.00000000E+00-0.00000000E+00 5.53782955E-03-6.23841436E-02-1.42676591E-03
 5  5-0.00000000E+00-2.11742625E-05-1.54650875E-05 6.83375592E-04-0.00000000E+00
 5  6 5.55223066E-04 8.44345901E-04-6.95099671E-01-1.79733717E-02-0.00000000E+00
 5  7-0.00000000E+00-3.29991735E-04 1.71879850E-02-0.00000000E+00-0.00000000E+00
 5  8 5.53782955E-03 2.21794401E-02 5.91530850E-04-0.00000000E+00-3.54788297E-05
 5  9 2.13398983E-05-1.48730225E-03-0.00000000E+00-7.16175801E-04-3.77702081E-04
 5 10-4.66961514E-02-2.06640456E-03-0.00000000E+00 1.78738446E-04-6.87167328E-05
 5 11 1.10926469E-02-0.00000000E+00-4.40484868E-03-2.37704185E-03-2.21794401E-02
 5 12-5.91530850E-04-0.00000000E+00 3.54788297E-05 2.13398982E-05 1.48730225E-03
 5 13-0.00000000E+00 7.16175801E-04-3.77702081E-04 4.66961513E-02 2.06640456E-03
 5 14-0.00000000E+00-1.78738446E-04-6.87167328E-05-1.10926469E-02-0.00000000E+00
 5 15 4.40484868E-03-2.37704185E-03-4.66961513E-02-2.06640456E-03-0.00000000E+00
 5 16-1.78738446E-04-6.87167328E-05 1.10926469E-02-0.00000000E+00 4.40484868E-03
 5 17-2.37704185E-03 4.66961514E-02 2.06640456E-03-0.00000000E+00 1.78738446E-04
 5 18-6.87167328E-05-1.10926469E-02-0.00000000E+00-4.40484868E-03-2.37704185E-03
 5 19-2.21794401E-02-5.91530850E-04-0.00000000E+00-3.54788297E-05 2.13398983E-05
 5 20 1.48730225E-03-0.00000000E+00-7.16175801E-04-3.77702081E-04 2.21794401E-02
 5 21 5.91530850E-04-0.00000000E+00 3.54788297E-05 2.13398982E-05-1.48730225E-03
 5 22-0.00000000E+00 7.16175801E-04-3.77702081E-04-6.23841435E-02-1.42676591E-03
 5 23-0.00000000E+00 2.11742625E-05-1.54650875E-05 6.83375592E-04-0.00000000E+00
 5 24-5.55223066E-04 8.44345901E-04 6.23841436E-02 1.42676591E-03-0.00000000E+00
 5 25-2.11742625E-05-1.54650875E-05-6.83375592E-04-0.00000000E+00 5.55223066E-04
 5 26 8.44345901E-04 4.76209341E-05 5.38609137E-04-4.76209341E-05-5.38609137E-04
 5 27 3.21581768E-04-3.68196708E-04-3.21581768E-04 3.68196708E-04-4.76209341E-05
 5 28-5.38609137E-04 4.76209341E-05 5.38609137E-04 3.76699969E-05 1.72843746E-04
 5 29-3.76699969E-05-1.72843746E-04-3.76699969E-05-1.72843746E-04 3.76699969E-05
 5 30 1.72843746E-04
 6  1-9.26541923E-02-2.33661836E-03-0.00000000E+00-1.01213618E-05 9.15521296E-06
 6  2 1.93726640E-03-0.00000000E+00-2.63213934E-05 6.24828614E-04 6.84034920E-01
 6  3 1.75101276E-02-0.00000000E+00-0.00000000E+00-2.62788586E-04-1.53716846E-02
 6  4-0.00000000E+00-0.00000000E+00 3.46339848E-03-9.26541923E-02-2.33661836E-03
 6  5-0.00000000E+00-1.01213618E-05-9.15521295E-06 1.93726640E-03-0.00000000E+00
 6  6-2.63213934E-05-6.24828614E-04 6.84034920E-01 1.75101276E-02-0.00000000E+00
 6  7-0.00000000E+00 2.62788586E-04-1.53716846E-02-0.00000000E+00-0.00000000E+00
 6  8-3.46339848E-03-6.38252681E-02-1.52405874E-03-0.00000000E+00-2.26860850E-05
 6  9-1.25406733E-06-5.79605256E-06-0.00000000E+00-3.18050245E-05 1.47452015E-04
 6 10-3.89414418E-02-1.57987573E-03-0.00000000E+00 2.72674749E-04-4.99057933E-06
 6 11 4.82753178E-03-0.00000000E+00-3.37668830E-03 7.60350965E-04-6.38252681E-02
 6 12-1.52405874E-03-0.00000000E+00-2.26860850E-05 1.25406733E-06-5.79605257E-06
 6 13-0.00000000E+00-3.18050245E-05-1.47452015E-04-3.89414418E-02-1.57987573E-03
 6 14-0.00000000E+00 2.72674749E-04 4.99057933E-06 4.82753178E-03-0.00000000E+00
 6 15-3.37668830E-03-7.60350965E-04-3.89414418E-02-1.57987573E-03-0.00000000E+00
 6 16-2.72674749E-04-4.99057933E-06 4.82753178E-03-0.00000000E+00 3.37668830E-03
 6 17 7.60350965E-04-3.89414418E-02-1.57987573E-03-0.00000000E+00-2.72674749E-04
 6 18 4.99057933E-06 4.82753178E-03-0.00000000E+00 3.37668830E-03-7.60350965E-04
 6 19-6.38252681E-02-1.52405874E-03-0.00000000E+00 2.26860850E-05 1.25406733E-06
 6 20-5.79605259E-06-0.00000000E+00 3.18050245E-05-1.47452015E-04-6.38252681E-02
 6 21-1.52405874E-03-0.00000000E+00 2.26860850E-05-1.25406733E-06-5.79605253E-06
 6 22-0.00000000E+00 3.18050245E-05 1.47452015E-04-9.26541923E-02-2.33661836E-03
 6 23-0.00000000E+00 1.01213618E-05-9.15521295E-06 1.93726640E-03-0.00000000E+00
 6 24 2.63213934E-05-6.24828614E-04-9.26541923E-02-2.33661836E-03-0.00000000E+00
 6 25 1.01213618E-05 9.15521295E-06 1.93726640E-03-0.00000000E+00 2.63213934E-05
 6 26 6.24828614E-04 5.76000054E-05-1.26798327E-04 5.76000054E-05-1.26798327E-04
 6 27-2.07734599E-04 9.75002474E-04-2.07734599E-04 9.75002474E-04 5.76000054E-05
 6 28-1.26798327E-04 5.76000054E-05-1.26798327E-04 5.37873014E-05-3.61118205E-05
 6 29 5.37873014E-05-3.61118205E-05 5.37873014E-05-3.61118205E-05 5.37873014E-05
 6 30-3.61118205E-05
 7  1 3.82430632E-01 9.33835055E-03-0.00000000E+00 1.22392317E-04 6.03448947E-05
 7  2-5.40576101E-03-0.00000000E+00-8.44699120E-04-7.87240295E-04 1.03584556E-11
 7  3-0.00000000E+00-0.00000000E+00 2.26321212E-05-0.00000000E+00-0.00000000E+00
 7  4-0.00000000E+00-8.58003747E-04-0.00000000E+00 3.82430632E-01 9.33835055E-03
 7  5-0.00000000E+00 1.22392317E-04-6.03448947E-05-5.40576101E-03-0.00000000E+00
 7  6-8.44699120E-04 7.87240295E-04-0.00000000E+00-0.00000000E+00-0.00000000E+00
 7  7 2.26321212E-05-0.00000000E+00-0.00000000E+00-0.00000000E+00-8.58003747E-04
 7  8-0.00000000E+00 3.18300842E-01 7.38844093E-03-0.00000000E+00 2.90216449E-05
 7  9-4.34359591E-05-1.75620855E-03-0.00000000E+00 4.96296216E-04 2.12358069E-04
 7 10 1.94290193E-02 8.26668323E-04-0.00000000E+00 1.93976217E-04-1.24426849E-05
 7 11-1.64619731E-03-0.00000000E+00-1.70960224E-03-7.32965123E-05 3.18300842E-01
 7 12 7.38844093E-03-0.00000000E+00 2.90216449E-05 4.34359591E-05-1.75620855E-03
 7 13-0.00000000E+00 4.96296216E-04-2.12358069E-04 1.94290193E-02 8.26668323E-04
 7 14-0.00000000E+00 1.93976217E-04 1.24426848E-05-1.64619731E-03-0.00000000E+00
 7 15-1.70960224E-03 7.32965123E-05-1.94290193E-02-8.26668323E-04-0.00000000E+00
 7 16 1.93976217E-04 1.24426848E-05 1.64619731E-03-0.00000000E+00-1.70960224E-03
 7 17 7.32965122E-05-1.94290193E-02-8.26668323E-04-0.00000000E+00 1.93976217E-04
 7 18-1.24426849E-05 1.64619731E-03-0.00000000E+00-1.70960224E-03-7.32965123E-05
 7 19-3.18300842E-01-7.38844093E-03-0.00000000E+00 2.90216449E-05-4.34359591E-05
 7 20 1.75620855E-03-0.00000000E+00 4.96296216E-04 2.12358069E-04-3.18300842E-01
 7 21-7.38844093E-03-0.00000000E+00 2.90216449E-05 4.34359591E-05 1.75620855E-03
 7 22-0.00000000E+00 4.96296216E-04-2.12358069E-04-3.82430632E-01-9.33835055E-03
 7 23-0.00000000E+00 1.22392317E-04 6.03448947E-05 5.40576101E-03-0.00000000E+00
 7 24-8.44699120E-04-7.87240295E-04-3.82430632E-01-9.33835055E-03-0.00000000E+00
 7 25 1.22392317E-04-6.03448947E-05 5.40576101E-03-0.00000000E+00-8.44699120E-04
 7 26 7.87240295E-04 1.21414089E-04-7.09153118E-04-1.21414089E-04 7.09153118E-04
 7 27-0.00000000E+00-0.00000000E+00-0.00000000E+00-0.00000000E+00 1.21414089E-04
 7 28-7.09153118E-04-1.21414089E-04 7.09153118E-04 1.24880521E-04-8.54364981E-04
 7 29-1.24880521E-04 8.54364981E-04 1.24880522E-04-8.54364981E-04-1.24880521E-04
 7 30 8.54364981E-04
 8  1 3.70917599E-01 9.00467076E-03 0.00000000E+00 1.04305215E-04 6.79748219E-05
 8  2-4.87446676E-03 0.00000000E+00-5.33175291E-04-5.42934948E-04 1.55568927E-01
 8  3 3.85020941E-03 0.00000000E+00 0.00000000E+00-1.17767720E-04-2.40997123E-03
 8  4 0.00000000E+00 0.00000000E+00 6.83429866E-04 3.70917599E-01 9.00467076E-03
 8  5 0.00000000E+00 1.04305215E-04-6.79748219E-05-4.87446676E-03 0.00000000E+00
 8  6-5.33175291E-04 5.42934948E-04 1.55568927E-01 3.85020941E-03 0.00000000E+00
 8  7 0.00000000E+00 1.17767720E-04-2.40997123E-03 0.00000000E+00 0.00000000E+00
 8  8-6.83429866E-04 3.12155136E-01 7.21057400E-03 0.00000000E+00 1.72835799E-05
 8  9-4.21964757E-05-1.61308027E-03 0.00000000E+00 5.56984498E-04 1.59793549E-04
 8 10-2.87517647E-02-1.25619190E-03 0.00000000E+00-1.17849206E-04 2.95900507E-05
 8 11 2.93514221E-03 0.00000000E+00 4.94494260E-04 2.03263772E-04 3.12155136E-01
 8 12 7.21057400E-03 0.00000000E+00 1.72835799E-05 4.21964758E-05-1.61308027E-03
 8 13 0.00000000E+00 5.56984498E-04-1.59793549E-04-2.87517647E-02-1.25619190E-03
 8 14 0.00000000E+00-1.17849205E-04-2.95900507E-05 2.93514221E-03 0.00000000E+00
 8 15 4.94494260E-04-2.03263772E-04-2.87517647E-02-1.25619190E-03 0.00000000E+00
 8 16 1.17849205E-04 2.95900507E-05 2.93514221E-03 0.00000000E+00-4.94494260E-04
 8 17 2.03263772E-04-2.87517647E-02-1.25619190E-03 0.00000000E+00 1.17849205E-04
 8 18-2.95900507E-05 2.93514221E-03 0.00000000E+00-4.94494260E-04-2.03263772E-04
 8 19 3.12155136E-01 7.21057400E-03 0.00000000E+00-1.72835799E-05 4.21964757E-05
 8 20-1.61308027E-03 0.00000000E+00-5.56984498E-04-1.59793549E-04 3.12155136E-01
 8 21 7.21057400E-03 0.00000000E+00-1.72835799E-05-4.21964758E-05-1.61308027E-03
 8 22 0.00000000E+00-5.56984498E-04 1.59793549E-04 3.70917599E-01 9.00467076E-03
 8 23 0.00000000E+00-1.04305215E-04-6.79748219E-05-4.87446676E-03 0.00000000E+00
 8 24 5.33175291E-04 5.42934948E-04 3.70917599E-01 9.00467076E-03 0.00000000E+00
 8 25-1.04305215E-04 6.79748219E-05-4.87446676E-03 0.00000000E+00 5.33175291E-04
 8 26-5.42934948E-04-1.26773866E-04 7.89306110E-04-1.26773866E-04 7.89306110E-04
 8 27-9.65241147E-05 1.03831825E-04-9.65241147E-05 1.03831825E-04-1.26773866E-04
 8 28 7.89306110E-04-1.26773866E-04 7.89306110E-04-1.27213900E-04 8.72861319E-04
 8 29-1.27213900E-04 8.72861319E-04-1.27213900E-04 8.72861319E-04-1.27213900E-04
 8 30 8.72861319E-04
 9  1 4.54227588E-01 1.14380884E-02 0.00000000E+00 4.50904166E-05 1.92631188E-04
 9  2-8.39435825E-03 0.00000000E+00-6.81743795E-05-2.40396296E-03 0.00000000E+00
 9  3 0.00000000E+00 0.00000000E+00-5.46807403E-05 0.00000000E+00 0.00000000E+00
 9  4 0.00000000E+00 1.31775631E-03 0.00000000E+00-4.54227588E-01-1.14380884E-02
 9  5 0.00000000E+00-4.50904167E-05 1.92631188E-04 8.39435825E-03 0.00000000E+00
 9  6 6.81743794E-05-2.40396296E-03 0.00000000E+00 0.00000000E+00 0.00000000E+00
 9  7 5.46807403E-05 0.00000000E+00 0.00000000E+00 0.00000000E+00-1.31775631E-03
 9  8 0.00000000E+00 2.02532402E-01 4.80187809E-03 0.00000000E+00-1.20931680E-05
 9  9 1.65964967E-04 3.33684173E-04 0.00000000E+00 1.64051748E-03-5.42349404E-04
 9 10-2.63183744E-02-1.15572985E-03 0.00000000E+00-8.29050363E-05-4.67784289E-05
 9 11 5.01621016E-03 0.00000000E+00 2.50628004E-03-1.92313297E-03-2.02532402E-01
 9 12-4.80187809E-03 0.00000000E+00 1.20931680E-05 1.65964967E-04-3.33684173E-04
 9 13 0.00000000E+00-1.64051748E-03-5.42349404E-04 2.63183744E-02 1.15572985E-03
 9 14 0.00000000E+00 8.29050363E-05-4.67784289E-05-5.01621016E-03 0.00000000E+00
 9 15-2.50628004E-03-1.92313297E-03 2.63183744E-02 1.15572985E-03 0.00000000E+00
 9 16-8.29050363E-05 4.67784289E-05-5.01621016E-03 0.00000000E+00 2.50628004E-03
 9 17 1.92313298E-03-2.63183744E-02-1.15572985E-03 0.00000000E+00 8.29050364E-05
 9 18 4.67784289E-05 5.01621016E-03 0.00000000E+00-2.50628004E-03 1.92313298E-03
 9 19 2.02532402E-01 4.80187809E-03 0.00000000E+00 1.20931680E-05-1.65964967E-04
 9 20 3.33684174E-04 0.00000000E+00-1.64051748E-03 5.42349403E-04-2.02532402E-01
 9 21-4.80187809E-03 0.00000000E+00-1.20931680E-05-1.65964967E-04-3.33684174E-04
 9 22 0.00000000E+00 1.64051748E-03 5.42349403E-04 4.54227588E-01 1.14380884E-02
 9 23 0.00000000E+00-4.50904166E-05-1.92631188E-04-8.39435825E-03 0.00000000E+00
 9 24 6.81743795E-05 2.40396296E-03-4.54227588E-01-1.14380884E-02 0.00000000E+00
 9 25 4.50904166E-05-1.92631188E-04 8.39435825E-03 0.00000000E+00-6.81743795E-05
 9 26 2.40396296E-03 2.15229126E-04-3.62423504E-04 2.15229126E-04-3.62423504E-04
 9 27 0.00000000E+00 0.00000000E+00 0.00000000E+00 0.00000000E+00-2.15229126E-04
 9 28 3.62423504E-04-2.15229126E-04 3.62423504E-04-6.01079489E-05 6.38696489E-04
 9 29-6.01079489E-05 6.38696489E-04 6.01079489E-05-6.38696489E-04 6.01079489E-05
 9 30-6.38696489E-04
10  1 4.49893406E-01 1.13413601E-02-0.00000000E+00 8.12675853E-05 2.12230716E-04
10  2-6.73441435E-03-0.00000000E+00 2.02584078E-04-1.61091396E-03-8.94309609E-02
10  3-2.58987071E-03-0.00000000E+00-0.00000000E+00 8.54300190E-05 6.18008531E-03
10  4-0.00000000E+00-0.00000000E+00-4.00232942E-03-4.49893406E-01-1.13413601E-02
10  5-0.00000000E+00-8.12675853E-05 2.12230716E-04 6.73441435E-03-0.00000000E+00
10  6-2.02584078E-04-1.61091396E-03 8.94309609E-02 2.58987071E-03-0.00000000E+00
10  7-0.00000000E+00 8.54300190E-05-6.18008531E-03-0.00000000E+00-0.00000000E+00
10  8-4.00232942E-03 2.01501493E-01 4.78575855E-03-0.00000000E+00-2.25763552E-05
10  9 1.76581105E-04-2.27617727E-04-0.00000000E+00 1.40321435E-03-6.86936829E-04
10 10 3.22296273E-02 1.55197736E-03-0.00000000E+00 4.67976692E-05 6.03861821E-05
10 11-9.47241921E-03-0.00000000E+00 1.74415507E-03 2.25953583E-03-2.01501493E-01
10 12-4.78575855E-03-0.00000000E+00 2.25763551E-05 1.76581105E-04 2.27617727E-04
10 13-0.00000000E+00-1.40321435E-03-6.86936829E-04-3.22296273E-02-1.55197736E-03
10 14-0.00000000E+00-4.67976692E-05 6.03861821E-05 9.47241921E-03-0.00000000E+00
10 15-1.74415507E-03 2.25953583E-03 3.22296273E-02 1.55197736E-03-0.00000000E+00
10 16-4.67976691E-05 6.03861820E-05-9.47241921E-03-0.00000000E+00-1.74415507E-03
10 17 2.25953583E-03-3.22296273E-02-1.55197736E-03-0.00000000E+00 4.67976691E-05
10 18 6.03861820E-05 9.47241921E-03-0.00000000E+00 1.74415507E-03 2.25953583E-03
10 19-2.01501493E-01-4.78575855E-03-0.00000000E+00-2.25763552E-05 1.76581105E-04
10 20 2.27617727E-04-0.00000000E+00 1.40321435E-03-6.86936829E-04 2.01501493E-01
10 21 4.78575855E-03-0.00000000E+00 2.25763551E-05 1.76581105E-04-2.27617727E-04
10 22-0.00000000E+00-1.40321435E-03-6.86936829E-04-4.49893406E-01-1.13413601E-02
10 23-0.00000000E+00 8.12675853E-05 2.12230716E-04 6.73441435E-03-0.00000000E+00
10 24 2.02584078E-04-1.61091396E-03 4.49893406E-01 1.13413601E-02-0.00000000E+00
10 25-8.12675853E-05 2.12230716E-04-6.73441435E-03-0.00000000E+00-2.02584078E-04
10 26-1.61091396E-03-1.99409283E-04 5.96436084E-04 1.99409283E-04-5.96436084E-04
10 27-2.07080989E-04-9.97042619E-04 2.07080989E-04 9.97042619E-04 1.99409283E-04
10 28-5.96436084E-04-1.99409283E-04 5.96436084E-04 6.20565159E-05-5.96110967E-04
10 29-6.20565159E-05 5.96110967E-04-6.20565160E-05 5.96110967E-04 6.20565159E-05
10 30-5.96110967E-04
11  1 3.18209286E-01 8.48908690E-03 0.00000000E+00-1.30611501E-04 2.10939802E-04
11  2-9.16316208E-03 0.00000000E+00 3.53833158E-04-2.39185644E-03 0.00000000E+00
11  3 0.00000000E+00 0.00000000E+00 1.55161389E-05 0.00000000E+00 0.00000000E+00
11  4 0.00000000E+00 8.09228801E-04 0.00000000E+00 3.18209286E-01 8.48908690E-03
11  5 0.00000000E+00-1.30611501E-04-2.10939802E-04-9.16316208E-03 0.00000000E+00
11  6 3.53833158E-04 2.39185644E-03 0.00000000E+00 0.00000000E+00 0.00000000E+00
11  7 1.55161389E-05 0.00000000E+00 0.00000000E+00 0.00000000E+00 8.09228801E-04
11  8 0.00000000E+00-3.83012250E-01-9.68578520E-03 0.00000000E+00-1.82667587E-04
11  9-4.77393743E-05 6.69576269E-03 0.00000000E+00 1.90896517E-03-4.75562234E-04
11 10 1.49397914E-02 6.38892824E-04 0.00000000E+00 6.37267493E-05 4.07166263E-05
11 11-3.38230084E-03 0.00000000E+00-1.44813268E-03-8.88863086E-04-3.83012250E-01
11 12-9.68578520E-03 0.00000000E+00-1.82667587E-04 4.77393743E-05 6.69576269E-03
11 13 0.00000000E+00 1.90896517E-03 4.75562234E-04 1.49397914E-02 6.38892824E-04
11 14 0.00000000E+00 6.37267493E-05-4.07166263E-05-3.38230084E-03 0.00000000E+00
11 15-1.44813268E-03 8.88863086E-04-1.49397914E-02-6.38892823E-04 0.00000000E+00
11 16 6.37267493E-05-4.07166263E-05 3.38230084E-03 0.00000000E+00-1.44813268E-03
11 17 8.88863086E-04-1.49397914E-02-6.38892823E-04 0.00000000E+00 6.37267493E-05
11 18 4.07166263E-05 3.38230084E-03 0.00000000E+00-1.44813268E-03-8.88863086E-04
11 19 3.83012251E-01 9.68578520E-03 0.00000000E+00-1.82667587E-04-4.77393743E-05
11 20-6.69576270E-03 0.00000000E+00 1.90896517E-03-4.75562234E-04 3.83012251E-01
11 21 9.68578520E-03 0.00000000E+00-1.82667587E-04 4.77393743E-05-6.69576270E-03
11 22 0.00000000E+00 1.90896517E-03 4.75562234E-04-3.18209286E-01-8.48908690E-03
11 23 0.00000000E+00-1.30611501E-04 2.10939802E-04 9.16316208E-03 0.00000000E+00
11 24 3.53833158E-04-2.39185644E-03-3.18209286E-01-8.48908690E-03 0.00000000E+00
11 25-1.30611501E-04-2.10939802E-04 9.16316208E-03 0.00000000E+00 3.53833158E-04
11 26 2.39185644E-03 8.30133142E-05-2.71762579E-04-8.30133141E-05 2.71762579E-04
11 27 0.00000000E+00 0.00000000E+00 0.00000000E+00 0.00000000E+00 8.30133142E-05
11 28-2.71762579E-04-8.30133141E-05 2.71762579E-04-1.51461545E-04 5.13690895E-04
11 29 1.51461545E-04-5.13690895E-04-1.51461545E-04 5.13690895E-04 1.51461545E-04
11 30-5.13690895E-04
12  1-3.18350034E-01-8.45860724E-03 0.00000000E+00 1.03159256E-04-2.07060271E-04
12  2 8.51857082E-03 0.00000000E+00-5.37522158E-04 2.11333251E-03-1.30061420E-02
12  3-3.50877129E-04 0.00000000E+00 0.00000000E+00 3.51707816E-05 6.69061490E-04
12  4 0.00000000E+00 0.00000000E+00 1.94922811E-05-3.18350034E-01-8.45860724E-03
12  5 0.00000000E+00 1.03159256E-04 2.07060271E-04 8.51857082E-03 0.00000000E+00
12  6-5.37522158E-04-2.11333251E-03-1.30061420E-02-3.50877129E-04 0.00000000E+00
12  7 0.00000000E+00-3.51707816E-05 6.69061490E-04 0.00000000E+00 0.00000000E+00
12  8-1.94922811E-05 3.82748992E-01 9.67248777E-03 0.00000000E+00 1.91639605E-04
12  9 3.42252039E-05-6.59980562E-03 0.00000000E+00-1.82408322E-03 5.20307097E-04
12 10 1.57202851E-02 7.03498149E-04 0.00000000E+00 1.55413977E-05 5.11856475E-06
12 11-2.77523111E-03 0.00000000E+00-9.49427780E-04-4.59884049E-04 3.82748992E-01
12 12 9.67248777E-03 0.00000000E+00 1.91639605E-04-3.42252039E-05-6.59980562E-03
12 13 0.00000000E+00-1.82408322E-03-5.20307097E-04 1.57202851E-02 7.03498149E-04
12 14 0.00000000E+00 1.55413977E-05-5.11856475E-06-2.77523111E-03 0.00000000E+00
12 15-9.49427780E-04 4.59884049E-04 1.57202851E-02 7.03498150E-04 0.00000000E+00
12 16-1.55413978E-05 5.11856477E-06-2.77523112E-03 0.00000000E+00 9.49427780E-04
12 17-4.59884049E-04 1.57202851E-02 7.03498150E-04 0.00000000E+00-1.55413978E-05
12 18-5.11856477E-06-2.77523112E-03 0.00000000E+00 9.49427780E-04 4.59884049E-04
12 19 3.82748991E-01 9.67248776E-03 0.00000000E+00-1.91639605E-04-3.42252039E-05
12 20-6.59980561E-03 0.00000000E+00 1.82408322E-03-5.20307097E-04 3.82748991E-01
12 21 9.67248776E-03 0.00000000E+00-1.91639605E-04 3.42252039E-05-6.59980561E-03
12 22 0.00000000E+00 1.82408322E-03 5.20307097E-04-3.18350034E-01-8.45860723E-03
12 23 0.00000000E+00-1.03159256E-04 2.07060271E-04 8.51857082E-03 0.00000000E+00
12 24 5.37522158E-04-2.11333251E-03-3.18350034E-01-8.45860723E-03 0.00000000E+00
12 25-1.03159256E-04-2.07060271E-04 8.51857082E-03 0.00000000E+00 5.37522158E-04
12 26 2.11333251E-03 7.97275269E-05-3.30433110E-04 7.97275269E-05-3.30433111E-04
12 27-3.54894830E-05 1.97853933E-05-3.54894830E-05 1.97853933E-05 7.97275269E-05
12 28-3.30433110E-04 7.97275269E-05-3.30433111E-04-1.44521941E-04 5.35106344E-04
12 29-1.44521941E-04 5.35106344E-04-1.44521941E-04 5.35106344E-04-1.44521941E-04
12 30 5.35106344E-04