!   File created by MacMolPlt 7.7.2
 $CONTRL SCFTYP=RHF RUNTYP=ENERGY MAXIT=200 MULT=1 $END
! $CONTRL SCFTYP=MCSCF RUNTYP=ENERGY MAXIT=200 MULT=1 $END
 $CONTRL ! VBTYP=XMVB 
 COORD=UNIQUE                 $END
 $SYSTEM TIMLIM=525600 MEMORY=1000000 $END
 $BASIS GBASIS=N31 NGAUSS=6 $END
 $GUESS GUESS=MOREAD 
 NORB=48
 $END
 $MOFRZ FRZ=.T. 
 IFRZ(1)=1,2,3,4,5,6,7,8,9,10,11,12,13,14,15,16,17,18,19,20,21,22,23
 IFRZ(24)=24,25,26,27,28,29,30,31,32,33,34,35,36,37,38,39,40
 $END
 $DET
 PRTTOL=0.  NCORE=46  NACT=2 NELS=2 ISTSYM=1 
! PRTTOL=0.  NCORE=7  NACT=2 NELS=2 ISTSYM=6 
!                                 D2h Ag B1g B2g B3g Au B1u B2u B3u
!                              ISTSYM  1  2   3   4   5   6   7   8
 NSTATE=2
 WSTATE(1)=1.0,0.0
 PURES=.true. SZ=0
 $END
 $SCF DIRSCF=.TRUE. $END
 $DATA 
anthracene opt C2H gaussian
C1
C  6.0     0.00000    -2.47682     -1.40470  
C  6.0    -0.00000    -0.00000      1.40119  
C  6.0     0.00000    -2.47682      1.40470  
C  6.0     0.00000     0.00000     -1.40119  
C  6.0     0.00000    -3.65503     -0.71227  
C  6.0    -0.00000     1.22202      0.72155  
C  6.0     0.00000    -3.65503      0.71227  
C  6.0    -0.00000     1.22202     -0.72155  
C  6.0    -0.00000    -1.22202      0.72155  
C  6.0     0.00000    -1.22202     -0.72155  
C  6.0    -0.00000     3.65503      0.71227  
C  6.0     0.00000     3.65503     -0.71227  
C  6.0    -0.00000     2.47682      1.40470  
C  6.0     0.00000     2.47682     -1.40470  
H  1.0     0.00000     2.47711     -2.49085  
H  1.0     0.00000    -2.47711      2.49085  
H  1.0     0.00000     0.00000     -2.48817  
H  1.0    -0.00000    -0.00000      2.48817  
H  1.0    -0.00000     2.47711      2.49085  
H  1.0     0.00000    -2.47711     -2.49085  
H  1.0    -0.00000     4.60051      1.24509  
H  1.0     0.00000    -4.60051     -1.24509  
H  1.0     0.00000     4.60051     -1.24509  
H  1.0     0.00000    -4.60051      1.24509  
 $END
E(MCSCF)=     -535.8262004  
 $VEC
 1  1 2.25732341E-02 1.48278178E-04 0.00000000E+00-1.18635703E-04-6.47083277E-05
 1  2 1.97866347E-03 0.00000000E+00 1.45221800E-03 2.93581777E-04 5.07228216E-02
 1  3 2.03613874E-04 0.00000000E+00-3.56591797E-07 1.87006264E-04 6.37562444E-03
 1  4 0.00000000E+00 2.52292073E-06-1.82627186E-03 2.66937682E-02 1.83031721E-04
 1  5 0.00000000E+00-1.36189561E-04 7.16809008E-05 2.25641249E-03 0.00000000E+00
 1  6 1.58327771E-03-4.20947052E-04 3.43154898E-02-4.24066411E-05 0.00000000E+00
 1  7-3.17963271E-07-1.75745279E-04 5.02844494E-03 0.00000000E+00 2.49689932E-06
 1  8 1.15810435E-03 8.50569602E-04-6.69382312E-05 0.00000000E+00-4.54922991E-05
 1  9 1.34729610E-05 4.63372215E-04 0.00000000E+00 1.27883967E-04-1.78327514E-04
 1 10 5.34749965E-01 1.32350418E-02 0.00000000E+00 2.28173189E-05 9.74735239E-05
 1 11-9.10210496E-03 0.00000000E+00 5.10591413E-04-1.20791433E-03 1.13476175E-03
 1 12-5.34854562E-05 0.00000000E+00-4.71739920E-05-1.90658678E-05 3.28916837E-04
 1 13 0.00000000E+00 6.30985107E-05 2.62351002E-04 4.56206635E-01 1.11456149E-02
 1 14 0.00000000E+00 2.77637465E-05-1.26150848E-04-6.50451376E-03 0.00000000E+00
 1 15 1.04919543E-04 1.68584559E-03 5.33481590E-01 1.32035096E-02 0.00000000E+00
 1 16-2.30200227E-05 9.73371939E-05-9.08354066E-03 0.00000000E+00-5.10550499E-04
 1 17-1.20659176E-03 4.55142944E-01 1.11195204E-02 0.00000000E+00-2.79661872E-05
 1 18-1.25944650E-04-6.49188373E-03 0.00000000E+00-1.04078191E-04 1.68268031E-03
 1 19 1.13742952E-03-5.35812599E-05 0.00000000E+00 4.73403275E-05-1.91090025E-05
 1 20 3.27838500E-04 0.00000000E+00-6.27387118E-05 2.62411679E-04 8.52423567E-04
 1 21-6.70995928E-05 0.00000000E+00 4.56411022E-05 1.34946023E-05 4.63485581E-04
 1 22 0.00000000E+00-1.28159003E-04-1.78181948E-04 2.67574579E-02 1.83579453E-04
 1 23 0.00000000E+00 1.36471968E-04 7.18980112E-05 2.26165386E-03 0.00000000E+00
 1 24-1.58488550E-03-4.22883915E-04 2.26255817E-02 1.48745600E-04 0.00000000E+00
 1 25 1.18900395E-04-6.49095631E-05 1.98209705E-03 0.00000000E+00-1.45378529E-03
 1 26 2.94420195E-04-9.52257767E-05 3.41235170E-05-1.08192552E-04 5.22582906E-05
 1 27-1.08783619E-04 5.78342339E-05-1.20147885E-04 1.89933026E-04-1.08262188E-04
 1 28 5.25961589E-05-9.51423594E-05 3.40327713E-05-1.31641889E-05 3.42974376E-05
 1 29-1.02186105E-05 5.37048849E-05-1.01680163E-05 5.39681366E-05-1.32026379E-05
 1 30 3.41599750E-05
 2  1 2.28963825E-02 2.05054289E-04-0.00000000E+00-1.13520096E-04-8.63016101E-05
 2  2 1.54195783E-03-0.00000000E+00 6.72428952E-04 4.03619449E-04 5.88385558E-05
 2  3 2.40099720E-07-0.00000000E+00 2.99888914E-04 2.18265348E-07 7.30107263E-06
 2  4-0.00000000E+00-2.14741290E-03-2.05004295E-06 2.66102003E-02 2.28676104E-04
 2  5-0.00000000E+00-1.19729882E-04 9.20019081E-05 2.15825922E-03-0.00000000E+00
 2  6 6.84616345E-04-7.78708700E-04 4.13198473E-05-5.04425324E-08-0.00000000E+00
 2  7 2.73052483E-04-2.08618387E-07 6.13751307E-06-0.00000000E+00-2.13014998E-03
 2  8 1.46328279E-06 8.34787013E-04-6.59186192E-05-0.00000000E+00-6.42676188E-05
 2  9 1.01596392E-05-9.48298036E-07-0.00000000E+00 9.09009491E-05 5.23144527E-05
 2 10-5.30530530E-01-1.31746811E-02-0.00000000E+00 8.54726434E-05-6.10386478E-05
 2 11 7.64307315E-03-0.00000000E+00-5.05680486E-05 6.40701493E-04 1.10334947E-03
 2 12-4.36311904E-05-0.00000000E+00-7.00367001E-05-1.74857471E-05-4.08188431E-04
 2 13-0.00000000E+00-1.26272969E-04 1.69170619E-05-4.60632539E-01-1.13184226E-02
 2 14-0.00000000E+00 8.44387424E-05 8.54719909E-05 5.62071492E-03-0.00000000E+00
 2 15-3.20811598E-04-1.27126508E-03 5.31767645E-01 1.32052568E-02-0.00000000E+00
 2 16 8.54160431E-05 6.12753998E-05-7.66374645E-03-0.00000000E+00-5.16510804E-05
 2 17-6.43690612E-04 4.61727724E-01 1.13452308E-02-0.00000000E+00 8.43713905E-05
 2 18-8.57636227E-05-5.63678527E-03-0.00000000E+00-3.21174389E-04 1.27509524E-03
 2 19-1.10075179E-03 4.35008779E-05-0.00000000E+00-6.99259850E-05 1.74426134E-05
 2 20 4.09008165E-04-0.00000000E+00-1.26443891E-04-1.63242494E-05-8.32673088E-04
 2 21 6.57649946E-05-0.00000000E+00-6.41593146E-05-1.01263568E-05 1.99623977E-06
 2 22-0.00000000E+00 9.06201348E-05-5.27594490E-05-2.65485198E-02-2.28257238E-04
 2 23-0.00000000E+00-1.19412624E-04-9.18344772E-05-2.15301709E-03-0.00000000E+00
 2 24 6.80917070E-04 7.77756850E-04-2.28416598E-02-2.04687059E-04-0.00000000E+00
 2 25-1.13235316E-04 8.61471770E-05-1.53721125E-03-0.00000000E+00 6.68968913E-04
 2 26-4.02885128E-04 3.47631712E-05-4.87693923E-05-3.03542811E-05 1.33683438E-04
 2 27-1.29461967E-07 8.43579632E-08-1.41055545E-07 2.06025002E-07 3.01024648E-05
 2 28-1.33566990E-04-3.49907764E-05 4.88582296E-05-1.68847681E-05-6.41294720E-05
 2 29 2.09471051E-05 1.06822340E-04-2.09721208E-05-1.06701169E-04 1.68547115E-05
 2 30 6.42167823E-05
 3  1 3.00139585E-02 2.74458547E-04-0.00000000E+00-1.18948355E-04-5.20564413E-05
 3  2 1.90857126E-03-0.00000000E+00 8.93002124E-04 9.15534260E-04-4.77652175E-02
 3  3-2.09633421E-04-0.00000000E+00 5.36537153E-08-8.05462585E-05-9.24321580E-03
 3  4-0.00000000E+00 5.97409365E-08 4.49951181E-03-2.58075121E-02-2.40225773E-04
 3  5-0.00000000E+00 9.84792860E-05-4.07805077E-05-1.58392108E-03-0.00000000E+00
 3  6-6.49310910E-04 8.64708173E-04 4.37629109E-02-5.05218059E-05-0.00000000E+00
 3  7-8.09883243E-08-1.13744104E-04 1.03806705E-02-0.00000000E+00 1.35860177E-07
 3  8 4.78887200E-03 2.22622558E-03 9.41632125E-05-0.00000000E+00-1.71866707E-05
 3  9 3.71426349E-05-9.41236923E-04-0.00000000E+00-4.75045204E-04-5.72969334E-04
 3 10-4.55237206E-01-1.22625594E-02-0.00000000E+00 4.49883835E-05 1.88501298E-04
 3 11 1.65508707E-02-0.00000000E+00-2.84498029E-03-3.33326754E-03-2.02266810E-03
 3 12-1.01919124E-04-0.00000000E+00 1.00188964E-05 3.43260987E-05 1.00816662E-03
 3 13-0.00000000E+00 4.88530461E-04-5.35086037E-04 5.34607305E-01 1.42270760E-02
 3 14-0.00000000E+00-4.46050626E-05 1.71471040E-04-1.78711608E-02-0.00000000E+00
 3 15 2.94090399E-03-3.09195535E-03-4.54934816E-01-1.22544385E-02-0.00000000E+00
 3 16-4.49887062E-05 1.88366386E-04 1.65413976E-02-0.00000000E+00 2.84630937E-03
 3 17-3.33000690E-03 5.34212795E-01 1.42166790E-02-0.00000000E+00 4.45859985E-05
 3 18 1.71347391E-04-1.78604623E-02-0.00000000E+00-2.94219351E-03-3.08886564E-03
 3 19-2.02413097E-03-1.02039117E-04-0.00000000E+00-1.00417967E-05 3.43615061E-05
 3 20 1.01016697E-03-0.00000000E+00-4.89604979E-04-5.35425805E-04 2.22787443E-03
 3 21 9.42734113E-05-0.00000000E+00 1.72218287E-05 3.71807553E-05-9.43273836E-04
 3 22-0.00000000E+00 4.76123838E-04-5.73307645E-04-2.58250518E-02-2.40357154E-04
 3 23-0.00000000E+00-9.84997439E-05-4.08002996E-05-1.58677551E-03-0.00000000E+00
 3 24 6.49295519E-04 8.66511415E-04 3.00357155E-02 2.74621512E-04-0.00000000E+00
 3 25 1.18990409E-04-5.20928232E-05 1.91176492E-03-0.00000000E+00-8.93111602E-04
 3 26 9.17447749E-04-8.44305950E-05 1.61048088E-04 6.78336035E-05-1.53678736E-04
 3 27-4.99424952E-05 8.05893597E-04 3.53178044E-05-8.01125511E-04 6.78080275E-05
 3 28-1.54093726E-04-8.44506166E-05 1.60615916E-04 2.03882581E-05 1.45214875E-04
 3 29-2.26895376E-05-1.40129915E-04-2.27082241E-05-1.40333047E-04 2.03664367E-05
 3 30 1.44997105E-04
 4  1 3.00339621E-02 2.31477201E-04-0.00000000E+00-5.26971028E-05-4.61795687E-05
 4  2 4.45320505E-03-0.00000000E+00 1.23111644E-04 2.69550545E-03-1.80518996E-05
 4  3-8.30111810E-08-0.00000000E+00-1.70114917E-04-3.25297458E-08-3.37124310E-06
 4  4-0.00000000E+00-4.14203259E-05 1.61801981E-06-2.63367829E-02-1.95824853E-04
 4  5-0.00000000E+00 3.61908832E-05-3.36313200E-05-4.19648550E-03-0.00000000E+00
 4  6-2.79549268E-05 2.61256211E-03 1.47586259E-05-1.60504065E-08-0.00000000E+00
 4  7 2.10682945E-04-3.60259922E-08 3.55036210E-06-0.00000000E+00-2.59064081E-04
 4  8 1.65899870E-06 2.33564056E-03 1.61443503E-04-0.00000000E+00-4.62186778E-05
 4  9 5.34776764E-05-2.89504888E-03-0.00000000E+00-1.53623692E-03-4.86536501E-04
 4 10 4.61004626E-01 1.23155500E-02-0.00000000E+00-2.23583965E-06-1.85907522E-04
 4 11-1.38963056E-02-0.00000000E+00-1.90447924E-03 4.57622496E-03-2.15894244E-03
 4 12-1.68385747E-04-0.00000000E+00 3.66973960E-05 5.15210212E-05 2.86667246E-03
 4 13-0.00000000E+00 1.53410865E-03-4.88951222E-04-5.30942024E-01-1.40446369E-02
 4 14-0.00000000E+00 1.43609730E-05-1.76409550E-04 1.48310120E-02-0.00000000E+00
 4 15 1.87684770E-03 4.44257364E-03-4.61347168E-01-1.23247296E-02-0.00000000E+00
 4 16-2.26519372E-06 1.86035441E-04 1.39083359E-02-0.00000000E+00-1.90247441E-03
 4 17-4.57852752E-03 5.31300536E-01 1.40542198E-02-0.00000000E+00 1.43890920E-05
 4 18 1.76532965E-04-1.48433540E-02-0.00000000E+00 1.87479967E-03-4.44481547E-03
 4 19 2.15745800E-03 1.68315165E-04-0.00000000E+00 3.66881384E-05-5.14958896E-05
 4 20-2.86596322E-03-0.00000000E+00 1.53376236E-03 4.88562045E-04-2.33407015E-03
 4 21-1.61374299E-04-0.00000000E+00-4.62078976E-05-5.34520667E-05 2.89436453E-03
 4 22-0.00000000E+00-1.53589619E-03 4.86136108E-04 2.63176185E-02 1.95651400E-04
 4 23-0.00000000E+00 3.61158255E-05 3.35998529E-05 4.19525980E-03-0.00000000E+00
 4 24-2.74332446E-05-2.61192552E-03-3.00132914E-02-2.31279919E-04-0.00000000E+00
 4 25-5.26182044E-05 4.61458277E-05-4.45192831E-03-0.00000000E+00 1.22534138E-04
 4 26-2.69486664E-03-3.02138265E-05-6.11971968E-04-3.48208761E-05-5.98714048E-04
 4 27-1.57670510E-08 2.80991740E-07 1.49613460E-08-2.85677252E-07 3.48727174E-05
 4 28 5.98600737E-04 3.01580707E-05 6.12085430E-04-3.03815521E-05-3.06420129E-04
 4 29-2.77593547E-05-2.94338283E-04 2.77436273E-05 2.94236679E-04 3.03963888E-05
 4 30 3.06521329E-04
 5  1-3.41528233E-01-8.29823560E-03 0.00000000E+00-1.17851888E-04-4.07328651E-05
 5  2 4.53945862E-03 0.00000000E+00 8.40889697E-04 5.42901162E-04-1.34024253E-04
 5  3-4.92501220E-06 0.00000000E+00-2.43155296E-05-7.45562234E-07 1.42979599E-05
 5  4 0.00000000E+00 9.32390458E-04 6.80300507E-07-3.99269088E-01-9.76608488E-03
 5  5 0.00000000E+00-1.22443196E-04 6.61736368E-05 5.78192789E-03 0.00000000E+00
 5  6 8.44117185E-04-9.24958337E-04-5.34772476E-05-3.36925496E-06 0.00000000E+00
 5  7-1.91857637E-05 6.92361822E-07 1.86892415E-05 0.00000000E+00 7.88910553E-04
 5  8 4.47529867E-06-3.12760782E-01-7.28544566E-03 0.00000000E+00-3.52542155E-05
 5  9 5.29204599E-05 2.03992623E-03 0.00000000E+00-3.05300543E-04-2.18815638E-04
 5 10-2.13658430E-02-9.08722361E-04 0.00000000E+00-2.00068309E-04 9.91254728E-06
 5 11 1.98290137E-03 0.00000000E+00 1.88482600E-03-4.97322105E-05-3.28284734E-01
 5 12-7.62377859E-03 0.00000000E+00-2.92553612E-05-3.60726377E-05 1.67013341E-03
 5 13 0.00000000E+00-6.02827494E-04 2.24371353E-04-1.80778569E-02-7.58393339E-04
 5 14 0.00000000E+00-1.88310459E-04-1.64268163E-05 1.25248714E-03 0.00000000E+00
 5 15 1.50693534E-03-1.75682834E-04 2.07966256E-02 8.83059394E-04 0.00000000E+00
 5 16-1.95091549E-04-9.20127626E-06-1.92128288E-03 0.00000000E+00 1.85117471E-03
 5 17 4.65040734E-05 1.76025021E-02 7.37479341E-04 0.00000000E+00-1.83693300E-04
 5 18 1.55250790E-05-1.22180198E-03 0.00000000E+00 1.47284308E-03 1.71509229E-04
 5 19 3.37385838E-01 7.83447663E-03 0.00000000E+00-2.98338665E-05 3.69312894E-05
 5 20-1.71185135E-03 0.00000000E+00-6.20898490E-04-2.27538884E-04 3.21329433E-01
 5 21 7.48432282E-03 0.00000000E+00-3.60742035E-05-5.43812648E-05-2.08975138E-03
 5 22 0.00000000E+00-3.15350705E-04 2.22877588E-04 4.10431063E-01 1.00383048E-02
 5 23 0.00000000E+00-1.25385071E-04-6.81972697E-05-5.93576189E-03 0.00000000E+00
 5 24 8.57936626E-04 9.46604548E-04 3.50810612E-01 8.52276141E-03 0.00000000E+00
 5 25-1.20491158E-04 4.18789028E-05-4.65956746E-03 0.00000000E+00 8.55447648E-04
 5 26-5.55869737E-04-1.07722004E-04 6.95765821E-04 1.31843273E-04-7.09217354E-04
 5 27-4.90243098E-07-6.64404210E-07-7.49171866E-07-2.63672510E-06-1.35925489E-04
 5 28 7.31852903E-04 1.04441484E-04-6.75440621E-04-1.31100761E-04 9.17979454E-04
 5 29 1.24079833E-04-8.10700333E-04-1.27775913E-04 8.33100055E-04 1.27254385E-04
 5 30-8.93224648E-04
 6  1 3.50417015E-01 8.48134094E-03-0.00000000E+00 9.94900906E-05 4.47791503E-05
 6  2-4.55127271E-03-0.00000000E+00-5.45187980E-04-5.02431991E-04-9.71394374E-03
 6  3-3.61218145E-04-0.00000000E+00 3.24912600E-07-5.44017152E-05 1.08357520E-03
 6  4-0.00000000E+00-1.25379079E-05 1.99733442E-05 4.10809765E-01 1.00146061E-02
 6  5-0.00000000E+00 1.09095792E-04-7.28885465E-05-5.64962712E-03-0.00000000E+00
 6  6-5.21405328E-04 7.87429202E-04-3.99659351E-03-2.46617020E-04-0.00000000E+00
 6  7 2.67744906E-07 5.12976221E-05 1.33949254E-03-0.00000000E+00-1.09230186E-05
 6  8 2.98282153E-04 3.21099246E-01 7.45326571E-03-0.00000000E+00 3.02885261E-05
 6  9-5.27374036E-05-1.85287695E-03-0.00000000E+00 3.90087396E-04 1.47922373E-04
 6 10-2.03586944E-02-9.17641646E-04-0.00000000E+00-1.79407119E-04 2.65069058E-05
 6 11 2.15543193E-03-0.00000000E+00 1.21753877E-03-9.86319280E-05 3.37490248E-01
 6 12 7.81397226E-03-0.00000000E+00 2.22199768E-05 3.36942991E-05-1.56914366E-03
 6 13-0.00000000E+00 6.53977589E-04-1.24310474E-04-1.74959631E-02-7.71365200E-04
 6 14-0.00000000E+00-1.67897886E-04-3.24232029E-05 1.19129758E-03-0.00000000E+00
 6 15 1.22480375E-03-1.31378092E-04-2.09252992E-02-9.41709057E-04-0.00000000E+00
 6 16 1.84764883E-04 2.67811570E-05 2.20707507E-03-0.00000000E+00-1.26764610E-03
 6 17-9.94414756E-05-1.79895462E-02-7.92069824E-04-0.00000000E+00 1.72988679E-04
 6 18-3.28457971E-05 1.22644548E-03-0.00000000E+00-1.26613799E-03-1.35579967E-04
 6 19 3.28462487E-01 7.60430860E-03-0.00000000E+00-2.14039400E-05 3.26596556E-05
 6 20-1.52252827E-03-0.00000000E+00-6.37892688E-04-1.18080595E-04 3.12411186E-01
 6 21 7.25089926E-03-0.00000000E+00-2.93214018E-05-5.13175681E-05-1.79698779E-03
 6 22-0.00000000E+00-3.81103285E-04 1.41969504E-04 3.99910873E-01 9.74814938E-03
 6 23-0.00000000E+00-1.05728017E-04-7.11180645E-05-5.49267345E-03-0.00000000E+00
 6 24 4.98227847E-04 7.62730458E-04 3.40863578E-01 8.24911435E-03-0.00000000E+00
 6 25-9.62293880E-05 4.36017459E-05-4.42355000E-03-0.00000000E+00 5.22063091E-04
 6 26-4.86739712E-04-1.21016679E-04 7.43496300E-04-1.49776998E-04 8.35447179E-04
 6 27-3.75883016E-05-5.89777650E-05-5.35690976E-05-1.83585495E-04-1.46190276E-04
 6 28 8.15904651E-04-1.23965095E-04 7.62257864E-04-1.39161002E-04 8.91789118E-04
 6 29-1.38144460E-04 8.40621565E-04-1.34699952E-04 8.18044208E-04-1.42670793E-04
 6 30 9.16286951E-04
 7  1 4.67522485E-01 1.17267924E-02-0.00000000E+00 8.77293252E-05 2.02570380E-04
 7  2-6.74799772E-03-0.00000000E+00 6.96194902E-05-1.40808477E-03 1.36928490E-02
 7  3 7.11960261E-05-0.00000000E+00-6.55193066E-08 3.31194778E-05 3.69732163E-03
 7  4-0.00000000E+00 1.61443309E-06-3.16715192E-03-4.35429660E-01-1.09790614E-02
 7  5-0.00000000E+00-7.11224810E-05 2.04167380E-04 6.50791292E-03-0.00000000E+00
 7  6-1.58432705E-04-1.42672417E-03-6.88780363E-03 8.67714649E-05-0.00000000E+00
 7  7 6.28952287E-08 4.14767790E-05-3.70439592E-03-0.00000000E+00-1.49059079E-06
 7  8-3.19230748E-03 2.35467714E-01 5.61980296E-03-0.00000000E+00-1.88028429E-05
 7  9 1.75186771E-04-8.77598164E-04-0.00000000E+00 1.21673698E-03-7.52149481E-04
 7 10 2.47908649E-02 1.20631134E-03-0.00000000E+00 6.13700054E-05 5.14331428E-05
 7 11-7.67226700E-03-0.00000000E+00 1.17967324E-03 1.88537350E-03-1.79214855E-01
 7 12-4.28194050E-03-0.00000000E+00 2.99785623E-05 1.79189381E-04 3.83466232E-04
 7 13-0.00000000E+00-1.23105412E-03-7.93031900E-04-2.72017959E-02-1.30763593E-03
 7 14-0.00000000E+00-7.94351437E-05 4.75726109E-05 7.82669828E-03-0.00000000E+00
 7 15-1.10509132E-03 1.89313017E-03 2.48555809E-02 1.20912954E-03-0.00000000E+00
 7 16-6.15850147E-05 5.15399711E-05-7.68407486E-03-0.00000000E+00-1.17368554E-03
 7 17 1.88990602E-03-2.72628438E-02-1.31028323E-03-0.00000000E+00 7.96026924E-05
 7 18 4.76835259E-05 7.83820558E-03-0.00000000E+00 1.09949169E-03 1.89765315E-03
 7 19-1.78681460E-01-4.26926547E-03-0.00000000E+00-2.99645978E-05 1.78806090E-04
 7 20 3.83467558E-04-0.00000000E+00 1.22731919E-03-7.91700321E-04 2.35029260E-01
 7 21 5.60935672E-03-0.00000000E+00 1.87755614E-05 1.74793985E-04-8.78278936E-04
 7 22-0.00000000E+00-1.21306400E-03-7.50747399E-04-4.34326031E-01-1.09513361E-02
 7 23-0.00000000E+00 7.10067752E-05 2.03724674E-04 6.48800180E-03-0.00000000E+00
 7 24 1.58712832E-04-1.42116095E-03 4.66507266E-01 1.17012006E-02-0.00000000E+00
 7 25-8.76483007E-05 2.02132149E-04-6.72917037E-03-0.00000000E+00-6.96714959E-05
 7 26-1.40263479E-03-1.95191594E-04 7.14007709E-04 1.82902632E-04-6.32006294E-04
 7 27-1.63807253E-04-1.03880413E-03 1.54212902E-04 1.03640136E-03 1.82384908E-04
 7 28-6.31050986E-04-1.95678596E-04 7.14783144E-04 5.75208990E-05-4.93761871E-04
 7 29-8.05742390E-05 6.26210271E-04-8.04464839E-05 6.24843018E-04 5.76864315E-05
 7 30-4.95367166E-04
 8  1-4.66053297E-01-1.16995462E-02-0.00000000E+00-5.08599679E-05-1.86303297E-04
 8  2 8.34730319E-03-0.00000000E+00 1.28707081E-04 2.33299821E-03 1.47859934E-05
 8  3 3.76875906E-08-0.00000000E+00 5.38522443E-05 3.21151970E-08 4.45383095E-06
 8  4-0.00000000E+00-1.25332554E-03-3.67918029E-06 4.34868802E-01 1.09703509E-02
 8  5-0.00000000E+00 3.12787488E-05-1.88941886E-04-8.11440314E-03-0.00000000E+00
 8  6-1.19031057E-05 2.34649014E-03-8.44107170E-06 7.02231238E-08-0.00000000E+00
 8  7-5.55724219E-05 5.42113903E-08-4.11973904E-06-0.00000000E+00 1.38892787E-03
 8  8-3.67939127E-06-2.34560628E-01-5.58351524E-03-0.00000000E+00 3.06151021E-06
 8  9-1.63284480E-04 1.22177748E-04-0.00000000E+00-1.55822465E-03 5.60431573E-04
 8 10 2.57802507E-02 1.12484366E-03-0.00000000E+00 7.14900820E-05 4.80128693E-05
 8 11-4.94321845E-03-0.00000000E+00-2.39268433E-03 1.91481001E-03 1.79299746E-01
 8 12 4.26490365E-03-0.00000000E+00-1.47930220E-05-1.66770359E-04 3.89392249E-04
 8 13-0.00000000E+00 1.58497925E-03 6.07628990E-04-2.77239263E-02-1.20245825E-03
 8 14-0.00000000E+00-9.17521058E-05 4.47243044E-05 4.99400448E-03-0.00000000E+00
 8 15 2.53191139E-03 1.94448672E-03-2.57269557E-02-1.12223496E-03-0.00000000E+00
 8 16 7.13938002E-05-4.78854991E-05 4.92574091E-03-0.00000000E+00-2.39567867E-03
 8 17-1.91046666E-03 2.76570020E-02 1.19925001E-03-0.00000000E+00-9.15222838E-05
 8 18-4.46225040E-05-4.97561068E-03-0.00000000E+00 2.53420432E-03-1.94007645E-03
 8 19-1.79602090E-01-4.27215905E-03-0.00000000E+00-1.48820077E-05 1.67193456E-04
 8 20-3.89358827E-04-0.00000000E+00 1.58779377E-03-6.09536128E-04 2.35217473E-01
 8 21 5.59916867E-03-0.00000000E+00 3.08645417E-06 1.63680278E-04-1.25117125E-04
 8 22-0.00000000E+00-1.56104408E-03-5.62106606E-04-4.35793927E-01-1.09937985E-02
 8 23-0.00000000E+00 3.14078806E-05 1.89413858E-04 8.12861675E-03-0.00000000E+00
 8 24-1.13626974E-05-2.34974919E-03 4.67213593E-01 1.17285385E-02-0.00000000E+00
 8 25-5.10944449E-05 1.86772424E-04-8.36366302E-03-0.00000000E+00 1.28718426E-04
 8 26-2.33627035E-03-2.19580665E-04 4.05956678E-04-2.08307587E-04 3.31807722E-04
 8 27-1.96876350E-07-1.21630288E-06 1.70986564E-07 1.18316182E-06 2.08698176E-04
 8 28-3.33075200E-04 2.19096332E-04-4.04111342E-04 5.17420015E-05-5.70057897E-04
 8 29 7.34066870E-05-6.94473073E-04-7.36399948E-05 6.96185889E-04-5.16550394E-05
 8 30 5.69181692E-04
 9  1-3.41746801E-01-9.08592498E-03 0.00000000E+00 1.32498414E-04-2.18014112E-04
 9  2 9.66246268E-03 0.00000000E+00-3.48497979E-04 2.51752473E-03 1.80511595E-04
 9  3 4.48397088E-06 0.00000000E+00-1.52749038E-05 3.31549088E-07 3.44349421E-07
 9  4 0.00000000E+00-8.18409812E-04 2.92870806E-06-3.18907453E-01-8.49974039E-03
 9  5 0.00000000E+00 1.33082234E-04 2.07672972E-04 9.10157012E-03 0.00000000E+00
 9  6-3.46212282E-04-2.33629814E-03 6.62390042E-05 1.37233273E-06 0.00000000E+00
 9  7-1.62947126E-05-4.18626754E-07 4.36743493E-06 0.00000000E+00-7.74010958E-04
 9  8-6.11745825E-07 3.80393371E-01 9.64565543E-03 0.00000000E+00 1.87157238E-04
 9  9 4.26422734E-05-6.88280616E-03 0.00000000E+00-2.01597337E-03 4.67962904E-04
 9 10-1.47035395E-02-6.22383830E-04 0.00000000E+00-6.44746394E-05-3.94402478E-05
 9 11 3.22929693E-03 0.00000000E+00 1.37890942E-03 9.23722924E-04 3.82441542E-01
 9 12 9.67059216E-03 0.00000000E+00 1.82947573E-04-4.78159501E-05-6.60588166E-03
 9 13 0.00000000E+00-1.86287510E-03-4.98837648E-04-1.60850193E-02-6.83710756E-04
 9 14 0.00000000E+00-6.92909042E-05 4.18485882E-05 3.53046024E-03 0.00000000E+00
 9 15 1.54720365E-03-8.47956065E-04 1.50945660E-02 6.39676145E-04 0.00000000E+00
 9 16-6.51646283E-05 3.95318017E-05-3.29441707E-03 0.00000000E+00 1.40831518E-03
 9 17-9.37394035E-04 1.65260401E-02 7.03405901E-04 0.00000000E+00-7.00397707E-05
 9 18-4.20241667E-05-3.61027496E-03 0.00000000E+00 1.57632245E-03 8.58282125E-04
 9 19-3.72125955E-01-9.40998375E-03 0.00000000E+00 1.77779263E-04 4.69066696E-05
 9 20 6.42986284E-03 0.00000000E+00-1.81493372E-03 4.83947761E-04-3.70096306E-01
 9 21-9.38479032E-03 0.00000000E+00 1.81868537E-04-4.18604443E-05 6.69888089E-03
 9 22 0.00000000E+00-1.96387337E-03-4.53940414E-04 3.10267778E-01 8.27040066E-03
 9 23 0.00000000E+00 1.30194840E-04-2.02196060E-04-8.87165051E-03 0.00000000E+00
 9 24-3.31927878E-04 2.28013634E-03 3.32536008E-01 8.84183649E-03 0.00000000E+00
 9 25 1.29656397E-04 2.12243955E-04-9.41938506E-03 0.00000000E+00-3.33584751E-04
 9 26-2.45696611E-03-8.94229593E-05 2.89472568E-04 8.09563583E-05-2.90341589E-04
 9 27-5.10582650E-07 9.57649275E-07-6.37744325E-07 4.99711722E-07-7.88287561E-05
 9 28 2.80937039E-04 9.18365407E-05-2.99141918E-04 1.46483396E-04-5.06857096E-04
 9 29-1.50809665E-04 4.88751929E-04 1.46938773E-04-4.74798515E-04-1.50326198E-04
 9 30 5.21647908E-04
10  1-3.32487004E-01-8.80891538E-03 0.00000000E+00 1.01814555E-04-2.08029748E-04
10  2 8.74823276E-03 0.00000000E+00-5.39730199E-04 2.17576758E-03 1.31301543E-02
10  3 3.26722763E-04 0.00000000E+00 2.06397248E-07 2.41515164E-05 1.42352354E-05
10  4 0.00000000E+00 1.12593776E-05 2.22335285E-04-3.10134389E-01-8.23397407E-03
10  5 0.00000000E+00 1.03851361E-04 1.96824784E-04 8.26380555E-03 0.00000000E+00
10  6-5.17073347E-04-2.01941317E-03 4.85136057E-03 9.99464954E-05 0.00000000E+00
10  7 2.25431284E-07-3.06240685E-05 3.30589416E-04 0.00000000E+00 1.05521563E-05
10  8-3.61442361E-05 3.70011486E-01 9.37371959E-03 0.00000000E+00 1.90444203E-04
10  9 2.74400443E-05-6.60734208E-03 0.00000000E+00-1.87339432E-03 5.09990813E-04
10 10 1.44262630E-02 6.37409171E-04 0.00000000E+00 2.59348281E-05 3.78770878E-06
10 11-2.40744808E-03 0.00000000E+00-1.09876577E-03-5.15642691E-04 3.72255857E-01
10 12 9.40431764E-03 0.00000000E+00 1.86320862E-04-3.30341443E-05-6.35103697E-03
10 13 0.00000000E+00-1.72609986E-03-5.32491637E-04 1.63683063E-02 7.30744109E-04
10 14 0.00000000E+00 2.83681644E-05-7.08996671E-06-2.97667863E-03 0.00000000E+00
10 15-1.07781094E-03 3.84809762E-04 1.40196693E-02 6.20187897E-04 0.00000000E+00
10 16-2.41636104E-05 2.70853112E-06-2.31830960E-03 0.00000000E+00 1.06067898E-03
10 17-4.90025509E-04 1.59204429E-02 7.11693234E-04 0.00000000E+00-2.64570904E-05
10 18-5.93892198E-06-2.87869943E-03 0.00000000E+00 1.03496381E-03 3.61574465E-04
10 19 3.82613190E-01 9.66621756E-03 0.00000000E+00-1.91265412E-04-3.43436985E-05
10 20-6.52991074E-03 0.00000000E+00 1.77647208E-03-5.45840891E-04 3.80268591E-01
10 21 9.63381388E-03 0.00000000E+00-1.95493851E-04 2.85825893E-05-6.79301306E-03
10 22 0.00000000E+00 1.92788859E-03 5.22731366E-04-3.18724422E-01-8.46298940E-03
10 23 0.00000000E+00-1.07461136E-04 2.02430248E-04 8.50965333E-03 0.00000000E+00
10 24 5.26374160E-04-2.08258641E-03-3.41745189E-01-9.05502204E-03 0.00000000E+00
10 25-1.05403470E-04-2.13929797E-04 9.00981159E-03 0.00000000E+00 5.49068396E-04
10 26 2.24393500E-03 8.97148871E-05-3.59056037E-04 7.61809708E-05-3.37137025E-04
10 27-3.68588804E-05 7.24007528E-05-4.70003941E-05 3.38530807E-05 7.83567190E-05
10 28-3.44921666E-04 8.72198839E-05-3.50960710E-04-1.42647256E-04 5.48215550E-04
10 29-1.38961481E-04 5.01860676E-04-1.43031255E-04 5.15027200E-04-1.38573659E-04
10 30 5.34092299E-04
11  1 2.25219231E-01 6.46993954E-03 0.00000000E+00-4.76910217E-05 1.54188125E-04
11  2-1.44257816E-02 0.00000000E+00 6.70111468E-04-5.97773994E-03 1.74413174E-02
11  3 4.44917981E-04 0.00000000E+00 6.66591296E-06 2.79669813E-05-4.64734610E-03
11  4 0.00000000E+00-6.75573098E-05 1.83461920E-03-2.21979272E-01-6.40415380E-03
11  5 0.00000000E+00 5.15293295E-05 1.55693612E-04 1.44626930E-02 0.00000000E+00
11  6-6.92166118E-04-6.00633111E-03-3.84829952E-03-9.97895377E-05 0.00000000E+00
11  7-6.65663761E-06 3.42506043E-05 4.37411923E-03 0.00000000E+00 6.51774642E-05
11  8 1.76723763E-03-4.82559404E-01-1.31427092E-02 0.00000000E+00-2.54298593E-04
11  9-1.59932171E-04 1.92756621E-02 0.00000000E+00 6.09583786E-03 3.86617842E-03
11 10 7.98311489E-03 5.10258970E-04 0.00000000E+00 9.00355892E-05 8.98800056E-06
11 11-4.26279793E-03 0.00000000E+00-5.15558376E-03 9.08692734E-04 4.95686742E-01
11 12 1.34582171E-02 0.00000000E+00 2.57433074E-04-1.59454530E-04-1.94207902E-02
11 13 0.00000000E+00-6.11081237E-03 3.85196035E-03-8.90060152E-03-5.50468065E-04
11 14 0.00000000E+00-8.83259810E-05 8.34839292E-06 4.36438307E-03 0.00000000E+00
11 15 5.10335946E-03 8.98564138E-04 9.59906980E-03 6.13746304E-04 0.00000000E+00
11 16-1.04253869E-04 1.48724465E-05-5.26489638E-03 0.00000000E+00 5.82655561E-03
11 17 8.34109002E-04-1.05525547E-02-6.55283087E-04 0.00000000E+00 1.03006261E-04
11 18 1.40878680E-05 5.36323944E-03 0.00000000E+00-5.77609394E-03 8.26000234E-04
11 19 4.19313445E-01 1.13836323E-02 0.00000000E+00-2.15885514E-04-1.35694983E-04
11 20-1.64849036E-02 0.00000000E+00 5.19710357E-03 3.23787438E-03-4.08236572E-01
11 21-1.11177943E-02 0.00000000E+00 2.13328933E-04-1.36165181E-04 1.63630686E-02
11 22 0.00000000E+00-5.18551728E-03 3.25017188E-03-1.87715710E-01-5.41676494E-03
11 23 0.00000000E+00-4.39676100E-05 1.30707011E-04 1.22824446E-02 0.00000000E+00
11 24 6.41412184E-04-5.15056896E-03 1.90537543E-01 5.47423486E-03 0.00000000E+00
11 25 4.08177554E-05 1.29571536E-04-1.22518215E-02 0.00000000E+00-6.23015755E-04
11 26-5.12569637E-03-1.24790214E-04-5.84958360E-04 1.40094596E-04 6.76579195E-04
11 27 7.30291733E-05 2.32421752E-04-7.89447214E-05-2.15347781E-04 1.23770247E-04
11 28 5.96691311E-04-1.41296709E-04-6.63216274E-04-1.87606660E-04-3.11630325E-04
11 29 2.18180764E-04 3.98964439E-04 1.83622965E-04 3.37702125E-04-2.22975179E-04
11 30-3.68754543E-04
12  1-1.90521868E-01-5.46926156E-03 0.00000000E+00 3.74920472E-05-1.35672431E-04
12  2 1.19135538E-02 0.00000000E+00-2.28159100E-04 4.64197193E-03 1.45495319E-03
12  3 3.71140373E-05 0.00000000E+00-7.98819594E-05 2.33275539E-06-3.87816285E-04
12  4 0.00000000E+00 8.09577497E-04 1.53101657E-04 1.88103059E-01 5.42036475E-03
12  5 0.00000000E+00-4.13267679E-05-1.37727783E-04-1.19450805E-02 0.00000000E+00
12  6 2.48515004E-04 4.66134423E-03-3.21257859E-04-8.33248183E-06 0.00000000E+00
12  7 7.97590633E-05 2.85909891E-06 3.65050721E-04 0.00000000E+00-7.80998601E-04
12  8 1.47488821E-04 4.08134070E-01 1.11200121E-02 0.00000000E+00 2.25968551E-04
12  9 1.30050358E-04-1.59640836E-02 0.00000000E+00-4.98363798E-03-3.39380608E-03
12 10 1.04104562E-02 6.66722081E-04 0.00000000E+00 9.32567459E-05 3.62476210E-05
12 11-6.40084573E-03 0.00000000E+00-4.47786975E-03-3.74053786E-04-4.19412233E-01
12 12-1.13932592E-02 0.00000000E+00-2.29167371E-04 1.30024153E-04 1.60915508E-02
12 13 0.00000000E+00 5.00231190E-03-3.38347029E-03-1.07130563E-02-6.78478926E-04
12 14 0.00000000E+00-9.59747827E-05 3.53273594E-05 6.39104872E-03 0.00000000E+00
12 15 4.48499496E-03-3.62939637E-04-8.94392529E-03-5.72955041E-04 0.00000000E+00
12 16 7.70475009E-05-3.42562121E-05 5.60584178E-03 0.00000000E+00-3.56143617E-03
12 17 5.19500135E-04 9.08907407E-03 5.77828872E-04 0.00000000E+00-8.00028665E-05
12 18-3.34557765E-05-5.57918964E-03 0.00000000E+00 3.57702480E-03 5.06848347E-04
12 19 4.95771819E-01 1.34663705E-02 0.00000000E+00-2.68663151E-04-1.54653037E-04
12 20-1.90878692E-02 0.00000000E+00 5.94592779E-03 3.97514313E-03-4.82473252E-01
12 21-1.31446270E-02 0.00000000E+00 2.64995368E-04-1.54761152E-04 1.89383077E-02
12 22 0.00000000E+00-5.92513400E-03 3.98767334E-03-2.22276505E-01-6.40642969E-03
12 23 0.00000000E+00-4.92968219E-05 1.61623077E-04 1.41767101E-02 0.00000000E+00
12 24 3.59804634E-04-5.59235124E-03 2.25231533E-01 6.46637864E-03 0.00000000E+00