!   File created by MacMolPlt 7.7.2
! $CONTRL SCFTYP=RHF RUNTYP=ENERGY MAXIT=200 MULT=1 $END
 $CONTRL SCFTYP=MCSCF RUNTYP=ENERGY MAXIT=200 MULT=1 $END
! $CONTRL EXETYP=CHECK ! VBTYP=XMVB 
 COORD=UNIQUE                 $END
 $SYSTEM TIMLIM=525600 MEMORY=1000000 $END
 $BASIS GBASIS=N31 NGAUSS=6 $END
 $GUESS GUESS=MOREAD 
 NORB=48
 NORDER=1 IORDER(37)=38,40,41,42,37,39
 $END
 $DET
 PRTTOL=0.  NCORE=46  NACT=2 NELS=2 ISTSYM=1 
! PRTTOL=0.  NCORE=7  NACT=2 NELS=2 ISTSYM=6 
!                                 D2h Ag B1g B2g B3g Au B1u B2u B3u
!                              ISTSYM  1  2   3   4   5   6   7   8
 NSTATE=2
 WSTATE(1)=1.0,0.0
 PURES=.true. SZ=0
 $END
 $SCF DIRSCF=.TRUE. $END
 $DATA 
anthracene opt C2H gaussian
C1
C  6.0     0.00000    -2.47682     -1.40470  
C  6.0    -0.00000    -0.00000      1.40119  
C  6.0     0.00000    -2.47682      1.40470  
C  6.0     0.00000     0.00000     -1.40119  
C  6.0     0.00000    -3.65503     -0.71227  
C  6.0    -0.00000     1.22202      0.72155  
C  6.0     0.00000    -3.65503      0.71227  
C  6.0    -0.00000     1.22202     -0.72155  
C  6.0    -0.00000    -1.22202      0.72155  
C  6.0     0.00000    -1.22202     -0.72155  
C  6.0    -0.00000     3.65503      0.71227  
C  6.0     0.00000     3.65503     -0.71227  
C  6.0    -0.00000     2.47682      1.40470  
C  6.0     0.00000     2.47682     -1.40470  
H  1.0     0.00000     2.47711     -2.49085  
H  1.0     0.00000    -2.47711      2.49085  
H  1.0     0.00000     0.00000     -2.48817  
H  1.0    -0.00000    -0.00000      2.48817  
H  1.0    -0.00000     2.47711      2.49085  
H  1.0     0.00000    -2.47711     -2.49085  
H  1.0    -0.00000     4.60051      1.24509  
H  1.0     0.00000    -4.60051     -1.24509  
H  1.0     0.00000     4.60051     -1.24509  
H  1.0     0.00000    -4.60051      1.24509  
 $END
E(MCSCF)=     -535.8262004  
 $VEC   
 1  1 2.27952798E-02 1.50275713E-04-0.00000000E+00-1.19833629E-04-6.56789526E-05
 1  2 1.99245458E-03-0.00000000E+00 1.45906770E-03 2.95740638E-04 5.08130506E-02
 1  3 2.04407191E-04-0.00000000E+00 3.50366877E-06 1.87113451E-04 6.38927190E-03
 1  4-0.00000000E+00-2.44141210E-05-1.83307447E-03 2.70797046E-02 1.86351823E-04
 1  5-0.00000000E+00-1.37858473E-04 7.29132836E-05 2.28809798E-03-0.00000000E+00
 1  6 1.59279163E-03-4.33452786E-04 3.42367786E-02-4.25331332E-05-0.00000000E+00
 1  7 2.99437856E-06-1.75559898E-04 5.01207209E-03-0.00000000E+00-2.41218043E-05
 1  8 1.15062003E-03 8.56721817E-04-6.79821762E-05-0.00000000E+00-4.62435034E-05
 1  9 1.35125271E-05 4.66337565E-04-0.00000000E+00 1.30580787E-04-1.76506126E-04
 1 10 5.28506200E-01 1.30809974E-02-0.00000000E+00 2.38221203E-05 9.65049532E-05
 1 11-9.02345938E-03-0.00000000E+00 5.15337476E-04-1.19710140E-03 1.15244736E-03
 1 12-5.37913705E-05-0.00000000E+00-4.80858292E-05-1.93653403E-05 3.20664777E-04
 1 13-0.00000000E+00 5.99324371E-05 2.63636007E-04 4.49835722E-01 1.09879232E-02
 1 14-0.00000000E+00 2.88802352E-05-1.25242873E-04-6.41366432E-03-0.00000000E+00
 1 15 9.53159571E-05 1.67209619E-03 5.41081090E-01 1.33941898E-02-0.00000000E+00
 1 16-2.18779912E-05 9.76970411E-05-9.21231802E-03-0.00000000E+00-5.14479032E-04
 1 17-1.20689723E-03 4.59778446E-01 1.12311767E-02-0.00000000E+00-2.69813530E-05
 1 18-1.27380698E-04-6.52624425E-03-0.00000000E+00-1.04585466E-04 1.70577453E-03
 1 19 1.12588220E-03-5.29594250E-05-0.00000000E+00 4.64539345E-05-1.89141833E-05
 1 20 3.33003101E-04-0.00000000E+00-6.44360542E-05 2.62752116E-04 8.39974046E-04
 1 21-6.63174836E-05-0.00000000E+00 4.48301148E-05 1.33358053E-05 4.63320775E-04
 1 22-0.00000000E+00-1.26892549E-04-1.78206043E-04 2.64517003E-02 1.81064930E-04
 1 23-0.00000000E+00 1.35095453E-04 7.07822152E-05 2.23453527E-03-0.00000000E+00
 1 24-1.57722434E-03-4.12963735E-04 2.23049761E-02 1.45826760E-04-0.00000000E+00
 1 25 1.17309620E-04-6.37663343E-05 1.96207944E-03-0.00000000E+00-1.44391416E-03
 1 26 2.89398969E-04-9.46296902E-05 3.36025002E-05-1.08653355E-04 5.44953220E-05
 1 27-1.08691446E-04 5.65708858E-05-1.20203050E-04 1.91186077E-04-1.08003519E-04
 1 28 5.08209897E-05-9.54548493E-05 3.40631464E-05-1.33913214E-05 3.34410998E-05
 1 29-9.90621412E-06 5.54191072E-05-1.04132091E-05 5.26792940E-05-1.30389535E-05
 1 30 3.45805333E-05
 2  1-2.25495508E-02-2.02673393E-04-0.00000000E+00 1.11874860E-04 8.53836619E-05
 2  2-1.50933241E-03-0.00000000E+00-6.53458885E-04-3.95401292E-04 5.55354416E-04
 2  3 2.29185066E-06-0.00000000E+00-3.00123515E-04 2.08365241E-06 6.75838530E-05
 2  4-0.00000000E+00 2.14721109E-03-1.83695292E-05-2.63253099E-02-2.26761115E-04
 2  5-0.00000000E+00 1.18119608E-04-9.11684185E-05-2.13683624E-03-0.00000000E+00
 2  6-6.65070334E-04 7.77709462E-04 4.12909024E-04-5.37813748E-07-0.00000000E+00
 2  7-2.72721506E-04-2.06319027E-06 6.27949237E-05-0.00000000E+00 2.12962226E-03
 2  8 1.57441053E-05-8.19830538E-04 6.53502586E-05-0.00000000E+00 6.36131265E-05
 2  9-9.88993650E-06 1.96934992E-06-0.00000000E+00-9.18249304E-05-5.55843692E-05
 2 10 5.37637808E-01 1.33513727E-02-0.00000000E+00-8.51605698E-05 6.20871243E-05
 2 11-7.76818554E-03-0.00000000E+00 5.25776756E-05-6.50880789E-04-1.09291096E-03
 2 12 4.26597348E-05-0.00000000E+00 6.94981766E-05 1.73396598E-05 4.17086313E-04
 2 13-0.00000000E+00 1.29600330E-04-1.46381939E-05 4.65832581E-01 1.14445128E-02
 2 14-0.00000000E+00-8.40889354E-05-8.72173491E-05-5.68986551E-03-0.00000000E+00
 2 15 3.26518887E-04 1.29720862E-03-5.25960112E-01-1.30634260E-02-0.00000000E+00
 2 16-8.57291543E-05-5.96643747E-05 7.57885397E-03-0.00000000E+00 4.40178913E-05
 2 17 6.19841240E-04-4.54890477E-01-1.11759404E-02-0.00000000E+00-8.46689173E-05
 2 18 8.45318580E-05 5.52287683E-03-0.00000000E+00 3.20980753E-04-1.26216118E-03
 2 19 1.11739218E-03-4.39730363E-05-0.00000000E+00 7.05649231E-05-1.77393496E-05
 2 20-4.08508560E-04-0.00000000E+00 1.27625404E-04 2.00455671E-05 8.41397576E-04
 2 21-6.67806528E-05-0.00000000E+00 6.46681243E-05 1.02355968E-05 7.57061384E-06
 2 22-0.00000000E+00-9.42228221E-05 5.09153843E-05 2.69110628E-02 2.30798773E-04
 2 23-0.00000000E+00 1.21116528E-04 9.27563474E-05 2.18651595E-03-0.00000000E+00
 2 24-7.00454430E-04-7.86376361E-04 2.30948237E-02 2.06314506E-04-0.00000000E+00
 2 25 1.14706382E-04-8.69167077E-05 1.55646538E-03-0.00000000E+00-6.87483501E-04
 2 26 4.03074712E-04-3.60471158E-05 4.83769561E-05 2.89776931E-05-1.33989651E-04
 2 27-1.26339282E-06 1.08897563E-06-1.35067227E-06 1.73544619E-06-3.13721553E-05
 2 28 1.35020810E-04 3.37904746E-05-4.74313071E-05 1.66842354E-05 6.41868012E-05
 2 29-2.11274077E-05-1.06652881E-04 2.08713772E-05 1.07724411E-04-1.69629864E-05
 2 30-6.32461055E-05
 3  1 3.01229567E-02 2.75238623E-04 0.00000000E+00-1.19307364E-04-5.23032580E-05
 3  2 1.92190477E-03 0.00000000E+00 8.95914602E-04 9.21870723E-04-4.77059702E-02
 3  3-2.09833287E-04 0.00000000E+00-1.31840084E-07-8.02427503E-05-9.23277571E-03
 3  4 0.00000000E+00-1.26400180E-06 4.49653248E-03-2.58060443E-02-2.40226794E-04
 3  5 0.00000000E+00 9.82742023E-05-4.06849001E-05-1.58795597E-03 0.00000000E+00
 3  6-6.46506794E-04 8.69087216E-04 4.38050309E-02-5.08764521E-05 0.00000000E+00
 3  7 5.13977722E-07-1.14020609E-04 1.03887337E-02 0.00000000E+00-1.60825683E-06
 3  8 4.79070973E-03 2.23337313E-03 9.43726981E-05 0.00000000E+00-1.73895776E-05
 3  9 3.72826782E-05-9.46599563E-04 0.00000000E+00-4.78027019E-04-5.74246197E-04
 3 10-4.53738544E-01-1.22235667E-02 0.00000000E+00 4.50627905E-05 1.88225607E-04
 3 11 1.65116630E-02 0.00000000E+00-2.84811257E-03-3.32518535E-03-2.02468662E-03
 3 12-1.02377100E-04 0.00000000E+00 9.98247809E-06 3.43947631E-05 1.01445488E-03
 3 13 0.00000000E+00 4.91770144E-04-5.35697856E-04 5.33943236E-01 1.42085757E-02
 3 14 0.00000000E+00-4.44878590E-05 1.70955654E-04-1.78470542E-02 0.00000000E+00
 3 15 2.94484701E-03-3.08068282E-03-4.54758628E-01-1.22519273E-02 0.00000000E+00
 3 16-4.49741590E-05 1.88941651E-04 1.65516843E-02 0.00000000E+00 2.84138090E-03
 3 17-3.34184274E-03 5.36299658E-01 1.42699519E-02 0.00000000E+00 4.46225725E-05
 3 18 1.71475225E-04-1.79049029E-02 0.00000000E+00-2.93862727E-03-3.09477264E-03
 3 19-2.01928697E-03-1.01759476E-04 0.00000000E+00-9.93168270E-06 3.42354285E-05
 3 20 1.00490500E-03 0.00000000E+00-4.86550673E-04-5.34005243E-04 2.22425334E-03
 3 21 9.38821089E-05 0.00000000E+00 1.71570865E-05 3.70861079E-05-9.36487646E-04
 3 22 0.00000000E+00 4.72767137E-04-5.72613370E-04-2.57479166E-02-2.39904693E-04
 3 23 0.00000000E+00-9.82791426E-05-4.06673040E-05-1.57562831E-03 0.00000000E+00
 3 24 6.47147537E-04 8.60817746E-04 2.99925481E-02 2.74191431E-04 0.00000000E+00
 3 25 1.19000201E-04-5.20477697E-05 1.90468287E-03 0.00000000E+00-8.94759142E-04
 3 26 9.12023262E-04-8.46219932E-05 1.59783512E-04 6.75734912E-05-1.54779532E-04
 3 27-5.01076778E-05 8.05965545E-04 3.51376304E-05-8.00851291E-04 6.77307072E-05
 3 28-1.52842798E-04-8.45544697E-05 1.61976077E-04 2.02929017E-05 1.44587554E-04
 3 29-2.27517247E-05-1.40609293E-04-2.26766105E-05-1.39705596E-04 2.04163720E-05
 3 30 1.45735104E-04
 4  1-3.00146260E-02-2.31225194E-04-0.00000000E+00 5.26763218E-05 4.62336165E-05
 4  2-4.45257520E-03-0.00000000E+00-1.22989649E-04-2.69435237E-03-1.11527153E-04
 4  3-5.38996507E-07-0.00000000E+00 1.69669439E-04-2.31137406E-07-1.92641870E-05
 4  4-0.00000000E+00 4.46205611E-05 8.73789234E-06 2.62297553E-02 1.94902428E-04
 4  5-0.00000000E+00-3.57375396E-05 3.33710018E-05 4.18874617E-03-0.00000000E+00
 4  6 2.47266354E-05-2.60937097E-03 5.80189690E-05-9.00074703E-08-0.00000000E+00
 4  7-2.11089116E-04-1.11899283E-07 1.55654213E-05-0.00000000E+00 2.62238234E-04
 4  8 7.75611024E-06-2.33312410E-03-1.61126072E-04-0.00000000E+00 4.63015575E-05
 4  9-5.34210384E-05 2.89287131E-03-0.00000000E+00 1.53505267E-03 4.85352454E-04
 4 10-4.61444858E-01-1.23284541E-02-0.00000000E+00 2.19398597E-06 1.86338340E-04
 4 11 1.39241953E-02-0.00000000E+00 1.89830759E-03-4.58351057E-03 2.15240224E-03
 4 12 1.68264415E-04-0.00000000E+00-3.65481242E-05-5.14127929E-05-2.86414689E-03
 4 13-0.00000000E+00-1.53293614E-03 4.87666688E-04 5.32508127E-01 1.40854353E-02
 4 14-0.00000000E+00-1.45978620E-05 1.76708265E-04-1.48733572E-02-0.00000000E+00
 4 15-1.87025439E-03-4.44800289E-03 4.59321871E-01 1.22724601E-02-0.00000000E+00
 4 16 2.05826940E-06-1.85780606E-04-1.38575178E-02-0.00000000E+00 1.90874397E-03
 4 17 4.57315351E-03-5.31105672E-01-1.40471101E-02-0.00000000E+00-1.44055237E-05
 4 18-1.75985212E-04 1.48177213E-02-0.00000000E+00-1.88041935E-03 4.43556770E-03
 4 19-2.16153317E-03-1.68581859E-04-0.00000000E+00-3.66295905E-05 5.15515074E-05
 4 20 2.86727133E-03-0.00000000E+00-1.53454533E-03-4.89797526E-04 2.33994616E-03
 4 21 1.61523538E-04-0.00000000E+00 4.63140956E-05 5.35380359E-05-2.89661021E-03
 4 22-0.00000000E+00 1.53683039E-03-4.87160442E-04-2.63509000E-02-1.96034546E-04
 4 23-0.00000000E+00-3.62154798E-05-3.35834089E-05-4.19643822E-03-0.00000000E+00
 4 24 2.85986727E-05 2.61277010E-03 3.00957066E-02 2.32014532E-04-0.00000000E+00
 4 25 5.29736419E-05-4.63503158E-05 4.45722090E-03-0.00000000E+00-1.24634136E-04
 4 26 2.69723368E-03 3.00350172E-05 6.12360132E-04 3.50647983E-05 5.98172053E-04
 4 27-3.21748451E-08 1.37099305E-06 1.23499379E-07-1.49217939E-06-3.47173298E-05
 4 28-5.98757465E-04-3.02343437E-05-6.11837516E-04 3.04564137E-05 3.06794862E-04
 4 29 2.76866322E-05 2.93856261E-04-2.77544444E-05-2.94395458E-04-3.03726264E-05
 4 30-3.06327683E-04
 5  1-9.41778874E-02-2.30546826E-03 0.00000000E+00-4.45042165E-05-9.43831686E-06
 5  2 1.29996794E-03 0.00000000E+00 4.06128859E-04 1.73688965E-04-5.45887692E-03
 5  3-2.01604315E-04 0.00000000E+00-2.04014872E-05-3.04090344E-05 5.92966113E-04
 5  4 0.00000000E+00 7.80035622E-04 2.08144242E-05-1.10845351E-01-2.73018831E-03
 5  5 0.00000000E+00-4.29793706E-05 1.58579435E-05 1.77644685E-03 0.00000000E+00
 5  6 4.23063837E-04-3.51299322E-04-2.20252699E-03-1.37625734E-04 0.00000000E+00
 5  7-1.56967946E-05 2.84442688E-05 7.57713210E-04 0.00000000E+00 6.49621761E-04
 5  8 1.75917698E-04-8.65476846E-02-2.03066222E-03 0.00000000E+00-1.30102127E-05
 5  9 1.57051004E-05 7.02798211E-04 0.00000000E+00-3.87907406E-05-1.02291382E-04
 5 10-2.91925880E-02-1.27037940E-03 0.00000000E+00-2.66027550E-04 2.24330100E-05
 5 11 2.88072403E-03 0.00000000E+00 2.25059886E-03-1.10057899E-04-9.10402407E-02
 5 12-2.12703651E-03 0.00000000E+00-1.23908006E-05-1.16501603E-05 5.38331624E-04
 5 13 0.00000000E+00-1.51742592E-04 1.20391203E-04-2.44760765E-02-1.04651377E-03
 5 14 0.00000000E+00-2.48723418E-04-3.18266476E-05 1.65021760E-03 0.00000000E+00
 5 15 1.92107649E-03-2.32251672E-04 6.03870731E-03 2.27091235E-04 0.00000000E+00
 5 16-6.27049674E-05 6.94862515E-06-4.03580611E-04 0.00000000E+00 8.72922656E-04
 5 17-1.25301452E-05 4.88610985E-03 1.84073782E-04 0.00000000E+00-5.92786826E-05
 5 18-4.84401700E-06-3.54424990E-04 0.00000000E+00 5.27852684E-04 7.19980722E-05
 5 19 4.63532619E-01 1.07523070E-02 0.00000000E+00-3.66545899E-05 4.75205643E-05
 5 20-2.26657872E-03 0.00000000E+00-8.78578677E-04-2.51591597E-04 4.38540902E-01
 5 21 1.02006540E-02 0.00000000E+00-4.65529285E-05-7.47307818E-05-2.73994684E-03
 5 22 0.00000000E+00-4.58565054E-04 2.68398139E-04 5.65089171E-01 1.38049797E-02
 5 23 0.00000000E+00-1.63227698E-04-9.72163452E-05-8.02073759E-03 0.00000000E+00
 5 24 9.90691478E-04 1.22302893E-03 4.76217855E-01 1.15482990E-02 0.00000000E+00
 5 25-1.53133841E-04 5.72394036E-05-6.25024749E-03 0.00000000E+00 1.00189321E-03
 5 26-7.13515560E-04-1.54674777E-04 9.84768341E-04 2.90607863E-05-1.37650344E-04
 5 27-2.04657274E-05-2.96513915E-05-3.03388244E-05-1.05482656E-04-1.95073508E-04
 5 28 1.06142976E-03 1.94490658E-05-1.50240992E-04-1.86289163E-04 1.26045557E-03
 5 29 2.85168367E-05-2.19213128E-04-1.80228320E-04 1.14010225E-03 2.87782351E-05
 5 30-2.49268847E-04
 6  1 4.76498903E-01 1.15465643E-02-0.00000000E+00 1.47277656E-04 5.81953618E-05
 6  2-6.22688808E-03-0.00000000E+00-9.16319603E-04-7.00343364E-04-8.13173404E-03
 6  3-3.00485191E-04-0.00000000E+00 1.36654699E-05-4.53092016E-05 8.86475981E-04
 6  4-0.00000000E+00-5.22776596E-04 2.89553779E-05 5.65119736E-01 1.37970124E-02
 6  5-0.00000000E+00 1.58660553E-04-9.85468310E-05-7.94330842E-03-0.00000000E+00
 6  6-8.96935181E-04 1.17944749E-03-3.28622177E-03-2.05047180E-04-0.00000000E+00
 6  7 1.05700233E-05 4.24057522E-05 1.12606993E-03-0.00000000E+00-4.36412998E-04
 6  8 2.60137066E-04 4.38636693E-01 1.01961547E-02-0.00000000E+00 4.49766832E-05
 6  9-7.41387516E-05-2.67729105E-03-0.00000000E+00 4.79460767E-04 2.45892427E-04
 6 10-5.42583574E-03-2.74670192E-04-0.00000000E+00-4.11755918E-05 1.67150908E-05
 6 11 7.41626685E-04-0.00000000E+00-1.95857535E-05-5.86502483E-05 4.63097888E-01
 6 12 1.07347757E-02-0.00000000E+00 3.43661655E-05 4.68017058E-05-2.21847767E-03
 6 13-0.00000000E+00 8.89219902E-04-2.24357944E-04-4.74809784E-03-2.29911272E-04
 6 14-0.00000000E+00-3.77865972E-05-1.82620050E-05 2.94917890E-04-0.00000000E+00
 6 15 2.14217531E-04-1.72583398E-05-2.90567915E-02-1.27920351E-03-0.00000000E+00
 6 16 2.61795561E-04 2.71103539E-05 2.94554179E-03-0.00000000E+00-2.07685116E-03
 6 17-1.22283438E-04-2.44758111E-02-1.05666261E-03-0.00000000E+00 2.44548164E-04
 6 18-3.63382030E-05 1.64307102E-03-0.00000000E+00-1.85870741E-03-2.20290596E-04
 6 19 9.13350127E-02 2.10195229E-03-0.00000000E+00-1.59399204E-06 6.91603279E-06
 6 20-3.44026398E-04-0.00000000E+00-1.96353034E-04 2.66770924E-05 8.60938045E-02
 6 21 1.98373851E-03-0.00000000E+00-4.99312994E-06-1.35868253E-05-3.63804870E-04
 6 22-0.00000000E+00-1.45626453E-04-1.13326477E-06 1.11597324E-01 2.70231022E-03
 6 23-0.00000000E+00-2.03640215E-05-2.26630751E-05-1.36609859E-03-0.00000000E+00
 6 24-5.16007611E-05 1.21951059E-04 9.33304696E-02 2.23991877E-03-0.00000000E+00
 6 25-1.46420539E-05 1.32873332E-05-1.15484220E-03-0.00000000E+00-2.86428569E-05
 6 26-1.04047563E-04-4.23352195E-05 2.41244615E-04-1.98824662E-04 1.09012818E-03
 6 27-3.05823471E-05-4.47743514E-05-4.51027311E-05-1.56620008E-04-4.84831184E-05
 6 28 2.85672451E-04-1.59338730E-04 1.00348117E-03-4.51470995E-05 2.46708956E-04
 6 29-1.83150729E-04 1.14237094E-03-4.30043708E-05 2.29977404E-04-1.89319315E-04
 6 30 1.25942111E-03
 7  1 4.14361423E-01 1.03901674E-02-0.00000000E+00 8.21450862E-05 1.80706852E-04
 7  2-5.79230176E-03-0.00000000E+00 8.03788005E-05-1.14034023E-03 1.35929469E-02
 7  3 6.97243863E-05-0.00000000E+00 5.86252623E-06 3.26498765E-05 3.68198722E-03
 7  4-0.00000000E+00-1.36022912E-04-3.14839323E-03-3.83367761E-01-9.66759196E-03
 7  5-0.00000000E+00-6.66659661E-05 1.81972711E-04 5.55594355E-03-0.00000000E+00
 7  6-1.61181573E-04-1.15703431E-03-6.85601853E-03 8.52395367E-05-0.00000000E+00
 7  7-6.08752129E-06 4.14423350E-05-3.67666301E-03-0.00000000E+00 1.52243694E-04
 7  8-3.17237946E-03 2.10129349E-01 5.01677757E-03-0.00000000E+00-1.79326580E-05
 7  9 1.55956933E-04-8.79185848E-04-0.00000000E+00 1.03556815E-03-6.85437215E-04
 7 10 2.73753989E-02 1.31804075E-03-0.00000000E+00 6.77990909E-05 5.65476334E-05
 7 11-8.15786024E-03-0.00000000E+00 9.17506598E-04 2.08355386E-03-1.56548904E-01
 7 12-3.74334974E-03-0.00000000E+00 2.84202787E-05 1.59851627E-04 4.14180457E-04
 7 13-0.00000000E+00-1.04658206E-03-7.23175968E-04-3.01707842E-02-1.43557518E-03
 7 14-0.00000000E+00-8.99862610E-05 5.20170190E-05 8.33056737E-03-0.00000000E+00
 7 15-8.15525328E-04 2.09522989E-03 2.17895622E-02 1.07444015E-03-0.00000000E+00
 7 16-5.25592918E-05 4.60794023E-05-7.08590306E-03-0.00000000E+00-1.43579014E-03
 7 17 1.66627229E-03-2.41038697E-02-1.17253822E-03-0.00000000E+00 6.97075118E-05
 7 18 4.23076788E-05 7.24248169E-03-0.00000000E+00 1.36961329E-03 1.67167409E-03
 7 19-1.95249056E-01-4.66456853E-03-0.00000000E+00-3.16484892E-05 1.96369791E-04
 7 20 3.30481208E-04-0.00000000E+00 1.39038800E-03-8.57188797E-04 2.62004114E-01
 7 21 6.25171127E-03-0.00000000E+00 1.84862939E-05 1.91568240E-04-9.13753612E-04
 7 22-0.00000000E+00-1.37501848E-03-8.08376292E-04-4.77621692E-01-1.20456819E-02
 7 23-0.00000000E+00 7.33105811E-05 2.23101515E-04 7.31504595E-03-0.00000000E+00
 7 24 1.59989031E-04-1.66657826E-03 5.16678910E-01 1.29580344E-02-0.00000000E+00
 7 25-9.34696469E-05 2.21430364E-04-7.61951594E-03-0.00000000E+00-5.08310634E-05
 7 26-1.64932521E-03-2.18740171E-04 7.58597957E-04 1.58213247E-04-5.88442192E-04
 7 27-1.63092348E-04-1.03288451E-03 1.52982672E-04 1.02940692E-03 2.03453794E-04
 7 28-6.59881341E-04-1.70738099E-04 6.68993753E-04 6.20074374E-05-5.47554442E-04
 7 29-7.28176971E-05 5.50009211E-04-8.91164718E-05 7.02980237E-04 5.08939527E-05
 7 30-4.24877630E-04
 8  1 5.16066374E-01 1.29514683E-02-0.00000000E+00 6.10662225E-05 2.07358309E-04
 8  2-9.04716001E-03-0.00000000E+00-1.25384241E-04-2.47174500E-03 1.49593080E-03
 8  3 7.79547418E-06-0.00000000E+00-5.34542470E-05 3.60387816E-06 4.03375210E-04
 8  4-0.00000000E+00 1.24044697E-03-3.45318100E-04-4.78409006E-01-1.20702698E-02
 8  5-0.00000000E+00-3.80895951E-05 2.10180732E-04 8.75958557E-03-0.00000000E+00
 8  6-1.06150188E-05-2.48618844E-03-7.51191689E-04 9.42101680E-06-0.00000000E+00
 8  7 5.53459137E-05 4.53270069E-06-4.03434901E-04-0.00000000E+00-1.38579681E-03
 8  8-3.48063439E-04 2.61512628E-01 6.22715552E-03-0.00000000E+00-4.56421406E-06
 8  9 1.81407676E-04-2.44855943E-04-0.00000000E+00 1.67993183E-03-6.39197023E-04
 8 10-2.28055403E-02-9.81286977E-04-0.00000000E+00-6.34046841E-05-4.21202276E-05
 8 11 4.05936904E-03-0.00000000E+00 2.49894848E-03-1.69422879E-03-1.95724080E-01
 8 12-4.65835612E-03-0.00000000E+00 1.83531697E-05 1.85679015E-04-3.58155526E-04
 8 13-0.00000000E+00-1.70867490E-03-6.94423741E-04 2.46188354E-02 1.05351755E-03
 8 14-0.00000000E+00 8.31901135E-05-3.90783708E-05-4.10069051E-03-0.00000000E+00
 8 15-2.64203375E-03-1.72415991E-03 2.82127157E-02 1.24448213E-03-0.00000000E+00
 8 16-7.67349221E-05 5.33703577E-05-5.73462653E-03-0.00000000E+00 2.24253955E-03
 8 17 2.10577593E-03-3.05630437E-02-1.33921221E-03-0.00000000E+00 1.00627140E-04
 8 18 4.94476198E-05 5.80894768E-03-0.00000000E+00-2.40216762E-03 2.13780538E-03
 8 19 1.57103083E-01 3.73582888E-03-0.00000000E+00 1.16894389E-05-1.46637825E-04
 8 20 4.36234359E-04-0.00000000E+00-1.43955251E-03 5.21491885E-04-2.09854027E-01
 8 21-4.99419288E-03-0.00000000E+00-5.65917790E-07-1.43260713E-04 5.02535507E-05
 8 22-0.00000000E+00 1.41519676E-03 4.75889228E-04 3.83591389E-01 9.67903464E-03
 8 23-0.00000000E+00-2.27035607E-05-1.65619619E-04-7.33986948E-03-0.00000000E+00
 8 24 2.45989040E-05 2.17451280E-03-4.14142686E-01-1.03953097E-02-0.00000000E+00
 8 25 4.18279747E-05-1.63284397E-04 7.57801035E-03-0.00000000E+00-1.40036752E-04
 8 26 2.16556590E-03 1.97081977E-04-3.27841903E-04 2.26549937E-04-3.96061204E-04
 8 27-1.78861036E-05-1.13299062E-04 1.67903314E-05 1.12997671E-04-1.86738760E-04
 8 28 2.58632231E-04-2.39749551E-04 4.83891900E-04-4.44384542E-05 5.07365818E-04
 8 29-8.28166263E-05 7.64364748E-04 6.51188310E-05-6.27135898E-04 5.68361841E-05
 8 30-6.14490867E-04
 9  1 8.19853229E-02 2.19748522E-03 0.00000000E+00-4.75948172E-05 5.46251074E-05
 9  2-2.69926196E-03 0.00000000E+00-3.44043484E-05-7.64425986E-04 7.57932613E-03
 9  3 1.88827463E-04 0.00000000E+00 1.23969830E-05 1.39156162E-05 1.86113802E-06
 9  4 0.00000000E+00 6.70730897E-04 1.31179975E-04 7.63330645E-02 2.05337368E-03
 9  5 0.00000000E+00-4.68587911E-05-5.27427662E-05-2.52340557E-03 0.00000000E+00
 9  6-2.31913418E-05 7.06950329E-04 2.79200321E-03 5.74318977E-05 0.00000000E+00
 9  7 1.34536333E-05-1.76429370E-05 1.94977723E-04 0.00000000E+00 6.30872270E-04
 9  8-1.77689697E-05-9.09734004E-02-2.31202749E-03 0.00000000E+00-3.98667095E-05
 9  9-1.83984297E-05 1.69906181E-03 0.00000000E+00 5.34651982E-04-8.03218202E-05
 9 10 2.03707391E-02 8.78115925E-04 0.00000000E+00 6.76621011E-05 3.41123507E-05
 9 11-4.02898002E-03 0.00000000E+00-1.76855375E-03-1.05300687E-03-9.15111837E-02
 9 12-2.31912624E-03 0.00000000E+00-3.89344592E-05 1.94151867E-05 1.62611326E-03
 9 13 0.00000000E+00 4.96169101E-04 9.12422097E-05 2.26679198E-02 9.83905055E-04
 9 14 0.00000000E+00 7.29246996E-05-3.80636999E-05-4.60713332E-03 0.00000000E+00
 9 15-1.88120158E-03 9.10155098E-04-3.99982367E-03-1.54283992E-04 0.00000000E+00
 9 16 3.85998252E-05-3.04422522E-05 1.31029781E-03 0.00000000E+00-5.15491824E-04
 9 17 4.73475090E-04-4.05852103E-03-1.52662341E-04 0.00000000E+00 4.12731088E-05
 9 18 3.05541329E-05 1.23485359E-03 0.00000000E+00-6.73649847E-04-4.81619488E-04
 9 19 5.26413107E-01 1.33078132E-02 0.00000000E+00-2.56483146E-04-5.86333999E-05
 9 20-9.06245236E-03 0.00000000E+00 2.51876703E-03-7.05536331E-04 5.21462219E-01
 9 21 1.32177733E-02 0.00000000E+00-2.61582715E-04 5.02582106E-05-9.38084028E-03
 9 22 0.00000000E+00 2.71541423E-03 6.80402285E-04-4.38313390E-01-1.16649664E-02
 9 23 0.00000000E+00-1.68499055E-04 2.82499868E-04 1.21911857E-02 0.00000000E+00
 9 24 5.77477522E-04-3.07422366E-03-4.70469943E-01-1.24883375E-02 0.00000000E+00
 9 25-1.66570004E-04-2.97477995E-04 1.29092734E-02 0.00000000E+00 5.90745421E-04
 9 26 3.30146178E-03 1.25288375E-04-4.47318378E-04-2.08028037E-05 3.75996200E-05
 9 27-2.10395499E-05 4.24573901E-05-2.71746169E-05 1.88191247E-05 1.09824813E-04
 9 28-4.29126192E-04-2.33355176E-05 3.63931269E-05-2.02562180E-04 7.31416479E-04
 9 29 4.06112218E-05-1.01249603E-04-2.02353162E-04 6.85389377E-04 4.05187993E-05
 9 30-1.09409886E-04
10  1-4.70709668E-01-1.24877427E-02 0.00000000E+00 1.59965606E-04-2.96694080E-04
10  2 1.27637870E-02 0.00000000E+00-6.40952719E-04 3.24032649E-03 1.07627610E-02
10  3 2.68165093E-04 0.00000000E+00-8.74767970E-06 1.97362519E-05 5.27962833E-06
10  4 0.00000000E+00-4.71756268E-04 1.85944696E-04-4.37707081E-01-1.16410611E-02
10  5 0.00000000E+00 1.62223150E-04 2.80934797E-04 1.20259293E-02 0.00000000E+00
10  6-6.21577724E-04-3.00496914E-03 3.97292696E-03 8.16448758E-05 0.00000000E+00
10  7-9.42913613E-06-2.51028191E-05 2.75328430E-04 0.00000000E+00-4.44063845E-04
10  8-2.57081782E-05 5.22001973E-01 1.32301048E-02 0.00000000E+00 2.63931255E-04
10  9 4.68842221E-05-9.37937086E-03 0.00000000E+00-2.70029308E-03 6.90079450E-04
10 10 3.06099701E-03 1.51160832E-04 0.00000000E+00-1.67492434E-05-2.00856849E-05
10 11-5.32094918E-05 0.00000000E+00-8.62664304E-05 1.23923057E-04 5.26142663E-01
10 12 1.32974499E-02 0.00000000E+00 2.58249417E-04-5.52036386E-05-9.02446063E-03
10 13 0.00000000E+00-2.49052171E-03-7.21047602E-04 3.83135074E-03 1.91314482E-04
10 14 0.00000000E+00-1.76480221E-05 1.87925140E-05-3.43964684E-04 0.00000000E+00
10 15 3.89994540E-05-1.85781792E-04 2.01744931E-02 8.75950157E-04 0.00000000E+00
10 16-5.78092543E-05 2.52747362E-05-3.80040694E-03 0.00000000E+00 1.68732196E-03
10 17-9.49966233E-04 2.26423538E-02 9.91480719E-04 0.00000000E+00-6.27200368E-05
10 18-2.95251957E-05-4.46019295E-03 0.00000000E+00 1.76228299E-03 7.92903199E-04
10 19 9.17745092E-02 2.31375534E-03 0.00000000E+00-5.06990723E-05-4.08306815E-07
10 20-1.52333352E-03 0.00000000E+00 3.76071351E-04-1.57031697E-04 9.07288314E-02
10 21 2.29342505E-03 0.00000000E+00-5.16372310E-05-1.48097260E-06-1.56773776E-03
10 22 0.00000000E+00 4.08433486E-04 1.58423619E-04-7.62122153E-02-2.00501333E-03
10 23 0.00000000E+00-1.07320742E-05 4.53694882E-05 1.69381121E-03 0.00000000E+00
10 24 2.31661571E-04-3.51593212E-04-8.19055374E-02-2.15169440E-03 0.00000000E+00
10 25-9.25837556E-06-4.88395904E-05 1.77119755E-03 0.00000000E+00 2.49057345E-04
10 26 3.74820711E-04 2.02410329E-05-1.21798470E-04 1.08942116E-04-4.42606307E-04
10 27-2.99403116E-05 6.04179363E-05-3.86249381E-05 2.66267891E-05 1.72748137E-05
10 28-1.14211609E-04 1.24903936E-04-4.61408563E-04-2.96787549E-05 1.46605593E-04
10 29-2.00703746E-04 6.91598011E-04-2.95744223E-05 1.38547991E-04-2.00510586E-04
10 30 7.38902328E-04
11  1 8.56874293E-03 2.48972709E-04-0.00000000E+00-3.90105195E-06 1.96453681E-06
11  2-7.62741034E-04-0.00000000E+00 2.77785557E-04-5.35274686E-04 1.27833325E-02
11  3 3.26006737E-04-0.00000000E+00-5.50144365E-05 2.03686540E-05-3.39188320E-03
11  4-0.00000000E+00 5.56688319E-04 1.33819876E-03-8.18159349E-03-2.40899536E-04
11  5-0.00000000E+00 3.65012790E-06 1.43572472E-06 7.64516448E-04-0.00000000E+00
11  6-2.77015142E-04-5.40322362E-04-2.81204382E-03-7.28476356E-05-0.00000000E+00
11  7 5.48971078E-05 2.50434605E-05 3.19118406E-03-0.00000000E+00-5.37904711E-04
11  8 1.28895038E-03-1.83816710E-02-4.97443224E-04-0.00000000E+00-1.59789295E-06
11  9-9.96165924E-06 9.86174032E-04-0.00000000E+00 3.60144392E-04 5.49233206E-05
11 10 1.30660699E-02 8.36422746E-04-0.00000000E+00 1.29476048E-04 3.29866857E-05
11 11-7.60961005E-03-0.00000000E+00-6.77422457E-03 3.30446775E-04 1.87548117E-02
11 12 5.04758419E-04-0.00000000E+00 1.29360218E-06-9.67930540E-06-9.88171121E-04
11 13-0.00000000E+00-3.56279674E-04 5.32175520E-05-1.39629242E-02-8.74638470E-04
11 14-0.00000000E+00-1.30589995E-04 3.19290769E-05 7.68067601E-03-0.00000000E+00
11 15 6.74907660E-03 3.29899441E-04-2.52034418E-04-1.68666577E-05-0.00000000E+00
11 16-1.22980794E-05-1.55423503E-05 6.56975702E-04-0.00000000E+00 1.23872661E-03
11 17 9.43279822E-04-2.80472973E-04-7.48101259E-06-0.00000000E+00 9.18445773E-06
11 18-1.55296888E-05-5.71897388E-04-0.00000000E+00-1.19248359E-03 9.29029178E-04
11 19 6.48449439E-01 1.76105936E-02-0.00000000E+00-3.43899463E-04-2.05549378E-04
11 20-2.52071015E-02-0.00000000E+00 7.89437189E-03 5.12142458E-03-6.32083100E-01
11 21-1.72175298E-02-0.00000000E+00 3.40000802E-04-2.06086014E-04 2.50332016E-02
11 22-0.00000000E+00-7.87709066E-03 5.13755641E-03-2.90489969E-01-8.37734163E-03
11 23-0.00000000E+00-6.58773919E-05 2.07382769E-04 1.87443595E-02-0.00000000E+00
11 24 6.95675947E-04-7.59974405E-03 2.95784548E-01 8.49198588E-03-0.00000000E+00
11 25 6.07686423E-05 2.05602685E-04-1.87266402E-02-0.00000000E+00-6.66654575E-04
11 26-7.57266950E-03-1.65518891E-04-7.77244287E-04 2.89381640E-05 1.34837593E-04
11 27 5.32756117E-05 1.69280399E-04-5.75640298E-05-1.56839391E-04 1.63585132E-04
11 28 7.94768633E-04-2.89664376E-05-1.32444167E-04-2.95557957E-04-4.84797907E-04
11 29 4.01987924E-06 1.59755032E-05 2.89355378E-04 5.21503641E-04-3.88832736E-06
11 30-1.26008159E-05
12  1 2.95422440E-01 8.48205127E-03 0.00000000E+00-6.04831093E-05 2.05563130E-04
12  2-1.87032763E-02 0.00000000E+00 6.50852572E-04-7.55138056E-03 1.20790573E-02
12  3 3.08058811E-04 0.00000000E+00 5.83009090E-05 1.92174368E-05-3.20120856E-03
12  4 0.00000000E+00-5.90720307E-04 1.26334149E-03-2.90616104E-01-8.38090436E-03
12  5 0.00000000E+00 6.59631370E-05 2.07808729E-04 1.87377530E-02 0.00000000E+00
12  6-6.81530592E-04-7.58293527E-03-2.65113991E-03-6.87482640E-05 0.00000000E+00
12  7-5.81882055E-05 2.36193739E-05 3.01214952E-03 0.00000000E+00 5.69625154E-04
12  8 1.21669119E-03-6.31582344E-01-1.72051815E-02 0.00000000E+00-3.40250481E-04
12  9-2.05871935E-04 2.50096467E-02 0.00000000E+00 7.86701207E-03 5.14381023E-03
12 10-1.01179770E-03-6.54916176E-05 0.00000000E+00 4.78937091E-06-1.75029782E-05
12 11 1.10077587E-03 0.00000000E+00-8.48003982E-04 9.25927402E-04 6.49051942E-01
12 12 1.76257638E-02 0.00000000E+00 3.44616845E-04-2.05407930E-04-2.52002480E-02
12 13 0.00000000E+00-7.88849096E-03 5.12643139E-03 5.28924761E-04 4.32793796E-05
12 14 0.00000000E+00-1.64211107E-06-1.73912331E-05-1.01859493E-03 0.00000000E+00
12 15 8.03441995E-04 9.11163561E-04 1.31038197E-02 8.38860270E-04 0.00000000E+00
12 16-1.28952366E-04 3.39645384E-05-7.66139195E-03 0.00000000E+00 6.71448864E-03
12 17 2.74958035E-04-1.39524278E-02-8.74877592E-04 0.00000000E+00 1.30266074E-04
12 18 3.28336753E-05 7.72207370E-03 0.00000000E+00-6.69003413E-03 2.76680203E-04
12 19-1.88693768E-02-5.17009516E-04 0.00000000E+00 1.86743502E-05 2.24463992E-06
12 20 4.73497681E-04 0.00000000E+00-1.01413571E-04-2.43934483E-04 1.82617992E-02
12 21 5.00729204E-04 0.00000000E+00-1.81349932E-05 1.97459797E-06-4.64770790E-04
12 22 0.00000000E+00 9.62857840E-05-2.43175989E-04 8.66905848E-03 2.45057984E-04
12 23 0.00000000E+00 1.87909279E-07-1.06108794E-05-3.22454108E-04 0.00000000E+00
12 24 2.37080520E-04-1.00058080E-04-8.57493980E-03-2.43227712E-04 0.00000000E+00
12 25 4.10883199E-07-9.95908167E-06 3.22101859E-04 0.00000000E+00-2.39519416E-04