!   File created by MacMolPlt 7.4.4
 $CONTRL SCFTYP=MCSCF RUNTYP=ENERGY MAXIT=30 MULT=2 $END
 $SYSTEM TIMLIM=525600 MEMORY=1000000 $END
 $BASIS GBASIS=N311 NGAUSS=6 NDFUNC=1 $END
! $SCF DIRSCF=.TRUE. $END
 $scf nconv=5 diis=.t. extrap=.t. ethrsh=0.05  $end
 $GUESS GUESS=MOREAD NORB=5 $END
 $DET
 PRTTOL=0. NCORE=1 NACT=4 NELS=7  ISTSYM=1 NSTATE=1
  WSTATE(1)=1.0 PURES=.true. 
 $END
 $DATA 
Be Test
C1
F      9.0     0.00000     0.00000     0.00000
 $END
 $VEC   
 1  1 5.47923135E-01 4.73791519E-01 0.00000000E+00 2.00000000E+00 0.00000000E+00
 1  2 5.16150208E-03 0.00000000E+00 1.00000000E+00 0.00000000E+00-9.19307127E-04
 1  3 2.00000000E+00 2.00000000E+00 2.00000000E+00-1.29465314E-04-1.29465314E-04
 1  4-5.98401775E-04 0.00000000E+00 0.00000000E+00 1.90000000E+01
 2  1-1.26920544E-01-2.15029069E-01 0.00000000E+00 0.00000000E+00 0.00000000E+00
 2  2 6.54350617E-01 0.00000000E+00 0.00000000E+00 0.00000000E+00 4.73687941E-01
 2  3 0.00000000E+00 0.00000000E+00 0.00000000E+00-3.26606592E-04-3.26606592E-04
 2  4-2.02916554E-03 0.00000000E+00 0.00000000E+00 0.00000000E+00
 3  1-0.00000000E+00-0.00000000E+00 3.20460937E-01-0.00000000E+00-0.00000000E+00
 3  2-0.00000000E+00 4.77327312E-01-0.00000000E+00-0.00000000E+00-0.00000000E+00
 3  3 4.26001248E-01-0.00000000E+00-0.00000000E+00-0.00000000E+00-0.00000000E+00
 3  4-0.00000000E+00-0.00000000E+00-0.00000000E+00-0.00000000E+00
 4  1-0.00000000E+00-0.00000000E+00-0.00000000E+00 3.20460937E-01-0.00000000E+00
 4  2-0.00000000E+00-0.00000000E+00 4.77327312E-01-0.00000000E+00-0.00000000E+00
 4  3-0.00000000E+00 4.26001248E-01-0.00000000E+00-0.00000000E+00-0.00000000E+00
 4  4-0.00000000E+00-0.00000000E+00-0.00000000E+00-0.00000000E+00
 5  1 0.00000000E+00 0.00000000E+00 1.00000000E+00 0.00000000E+00 3.28148249E-01
 5  2 0.00000000E+00 0.00000000E+00 1.00000000E+00 5.00312270E-01 0.00000000E+00
 5  3 0.00000000E+00 0.00000000E+00 3.91104574E-01 0.00000000E+00 0.00000000E+00
 5  4 0.00000000E+00 1.00000000E+00 1.00000000E+00 5.19000000E+02
 $END
