!   File created by MacMolPlt 7.4.3
! $CONTRL SCFTYP=NONE CITYP=ALDET RUNTYP=ENERGY
!! $CONTRL SCFTYP=RHF  RUNTYP=ENERGY MAXIT=200 MULT=1 
 $CONTRL SCFTYP=MCSCF  RUNTYP=ENERGY MAXIT=200 MULT=1 
   MAXIT=90  MULT=1  VBTYP=NONE  $END
 $CIDET
  NCORE=13 NACT=4 NELS=4 ISTSYM=1 NSTATE=10
  WSTATE(1)=0.0,0.0,0.0,1.0,0.0,0.0,0.0,0.0,0.0,0.0
 $END
 $SYSTEM TIMLIM=525600 MEMORY=1000000 $END
 $BASIS GBASIS=N31 NGAUSS=6 $END
 $GUESS GUESS=MOREAD NORB=2 $END
! NORDER=1 IORDER(37)=38,40,41,42,37,39

 $SCF DIRSCF=.TRUE. $END
 $DET
 PRTTOL=0.  NCORE=0  NACT=2 NELS=2 ISTSYM=1
! PRTTOL=0.  NCORE=7  NACT=2 NELS=2 ISTSYM=6
 $END
 $DATA 
Title
C1
H     1.0     0.000 0.000 0.000
H     1.0     0.000 0.000 0.74
 $END
 $VEC
 1  1 3.26935224E-01 2.71805882E-01 3.26935224E-01 2.71805882E-01
 2  1 1.22648760E-01 1.71489541E+00-1.22648760E-01-1.71489541E+00
 $END

