!   File created by MacMolPlt 7.4.3
! $CONTRL SCFTYP=NONE CITYP=ALDET RUNTYP=ENERGY
 $CONTRL SCFTYP=MCSCF  RUNTYP=ENERGY MAXIT=200 MULT=1
 MAXIT=90  MULT=1  VBTYP=NONE  $END
! $CONTRL SCFTYP=RHF  RUNTYP=ENERGY MAXIT=200 MULT=1 
 $CIDET
  NCORE=13 NACT=4 NELS=4 ISTSYM=1 NSTATE=1 
  WSTATE(1)=1.0,0.0,0.0
 $END
 $SYSTEM TIMLIM=525600 MEMORY=1000000 $END
 $BASIS GBASIS=N31 NGAUSS=6 NDFUNC=1 $END
 $GUESS GUESS=MOREAD NORB=17 $END
 $GUESS NORDER=1 IORDER(12)=13,14,12 $END

 $SCF DIRSCF=.TRUE. $END
 $DET
 PRTTOL=0.  NCORE=13  NACT=4 NELS=4 ISTSYM=1
! PRTTOL=0.  NCORE=7  NACT=2 NELS=2 ISTSYM=6
 $END

 $DATA

  C1
C 6. 0.000000     1.209467     1.295575
C 6. 0.00000     0.000000     0.718809
C 6. 0.000000     -0.148676    -0.750912
O 8. 0.000000     -1.214692    -1.329532
H 1.0  0.000000     1.336176     2.380594
H 1.0  0.000000     2.121140     0.688472
H 1.0  0.000000     -0.927519     1.299734
H 1.0  0.000000     0.822993    -1.313379
 $END
 $VEC   
 1  1 1.67123685E-05-2.51819572E-06 0.00000000E+00-3.80222559E-05-2.27469034E-05
 1  2-1.28580566E-04 0.00000000E+00 3.14915390E-05 1.24525059E-04 1.58531154E-05
 1  3 2.25295528E-05-1.78602761E-05 0.00000000E+00 0.00000000E+00-1.94195983E-06
 1  4-8.72484638E-06 2.74622499E-05 0.00000000E+00-3.68447625E-06-3.87768774E-06
 1  5-2.45965434E-05 0.00000000E+00-1.27363103E-05 6.17906131E-05-1.84586555E-05
 1  6-1.96174352E-05 6.98800981E-06 0.00000000E+00 0.00000000E+00-7.21079312E-05
 1  7-9.08516072E-06 4.58873707E-04 0.00000000E+00 8.66149261E-05 6.59549666E-05
 1  8-3.27090467E-04 0.00000000E+00 5.69708978E-04 3.34710406E-04-2.63996112E-05
 1  9-6.32908586E-04-2.26598993E-04 0.00000000E+00 0.00000000E+00-3.71631312E-04
 1 10 9.94695733E-01 2.09381821E-02 0.00000000E+00 1.37099627E-03 7.39296256E-04
 1 11 4.65438993E-03 0.00000000E+00 4.06729090E-05-3.21466528E-06-4.20108804E-03
 1 12-3.63762189E-03-3.82241290E-03 0.00000000E+00 0.00000000E+00 1.58679424E-04
 1 13-2.31755597E-05-7.29729143E-05-1.98392274E-06-6.16821929E-06 1.68086453E-05
 1 14-1.57131450E-05-3.67350935E-05-1.36901909E-04
 2  1 2.49011371E-03 1.39816798E-05 0.00000000E+00 1.03240537E-04 1.90429388E-04
 2  2 9.37102742E-05 0.00000000E+00 1.04037923E-05-7.55040953E-04-1.40562764E-04
 2  3 8.39268610E-05 4.13794963E-05 0.00000000E+00 0.00000000E+00 3.44011447E-05
 2  4 2.47424054E-03 5.70701048E-05 0.00000000E+00 2.45440786E-05 2.07838851E-04
 2  5 2.56525124E-03 0.00000000E+00 6.24794081E-04-1.12367103E-03-1.39083156E-04
 2  6-2.35157426E-04-6.47469814E-04 0.00000000E+00 0.00000000E+00-5.04607184E-05
 2  7 9.95783955E-01 2.65611085E-02 0.00000000E+00-6.08521092E-04-2.95249269E-04
 2  8-7.45656454E-03 0.00000000E+00-2.84398930E-03-1.66755994E-03-2.47842350E-03
 2  9-1.13139095E-03-1.54098567E-03 0.00000000E+00 0.00000000E+00 5.73292550E-04
 2 10-3.20464165E-04 5.85000574E-04 0.00000000E+00 2.52411712E-04 1.88587453E-04
 2 11-2.79378287E-03 0.00000000E+00-1.55897771E-03-6.88327462E-04 3.74029480E-04
 2 12-5.05633731E-05 1.15529028E-04 0.00000000E+00 0.00000000E+00-8.04708506E-05
 2 13 1.65537176E-04 5.60226497E-04-2.07428841E-05-8.29706686E-05-1.21987659E-04
 2 14 2.39088252E-04 1.71796017E-05 2.35607923E-03
 3  1 7.77921742E-01 1.83738750E-02 0.00000000E+00-1.34083454E-03-6.27964366E-04
 3  2-9.24288108E-03 0.00000000E+00-8.36745629E-04-7.18545195E-04-1.92148475E-03
 3  3-1.67953075E-03-1.94442515E-03 0.00000000E+00 0.00000000E+00 2.40150282E-04
 3  4 6.21611378E-01 1.93216722E-02 0.00000000E+00-1.78961854E-03-1.11845285E-03
 3  5-2.50528712E-03 0.00000000E+00-2.74727301E-04 1.03633067E-03-1.68018590E-03
 3  6-1.27693274E-03-1.25161999E-03 0.00000000E+00 0.00000000E+00 9.91074805E-06
 3  7-4.19512443E-03 6.72713990E-04 0.00000000E+00 2.12240124E-04 1.65545408E-03
 3  8 3.01624869E-03 0.00000000E+00 5.25529346E-04 1.25506404E-03-1.36128723E-04
 3  9-2.80169333E-04-1.10535218E-04 0.00000000E+00 0.00000000E+00 4.81125975E-05
 3 10 7.17399500E-05-2.79547963E-04 0.00000000E+00 1.71876868E-05-9.28883938E-04
 3 11 1.22232940E-04 0.00000000E+00 1.76494524E-04-7.74858575E-04-7.47781357E-05
 3 12-2.87707555E-05 7.32894307E-06 0.00000000E+00 0.00000000E+00 2.09537996E-06
 3 13-1.77705545E-03 9.40474563E-04-1.84863470E-03 6.63265612E-04 1.25752261E-03
 3 14 1.49477769E-03-3.73994336E-04-7.77622727E-04
 4  1-6.27172544E-01-8.71409378E-03 0.00000000E+00 4.34646734E-03 1.98649923E-03
 4  2 2.03041437E-02 0.00000000E+00-6.92227409E-05-7.14947567E-04 1.15883835E-03
 4  3 1.01975009E-03 1.71785688E-03 0.00000000E+00 0.00000000E+00-4.49819847E-04
 4  4 7.79740919E-01 1.59718023E-02 0.00000000E+00 5.64856781E-03 2.59952471E-03
 4  5-2.07229682E-02 0.00000000E+00-3.48366508E-04 1.08310771E-03-1.64139967E-03
 4  6-1.18728859E-03-1.72149003E-03 0.00000000E+00 0.00000000E+00 5.62619862E-04
 4  7 6.74650515E-04-2.44653779E-03 0.00000000E+00-5.68949837E-04-5.15468410E-03
 4  8 1.91971416E-03 0.00000000E+00-5.08935060E-05 6.96871124E-04-1.96309698E-05
 4  9 2.43481218E-04-1.19796044E-03 0.00000000E+00 0.00000000E+00-7.66400015E-05
 4 10-2.14778584E-04 6.01231956E-04 0.00000000E+00-8.61534825E-06 2.69455818E-03
 4 11-6.92591712E-05 0.00000000E+00-3.67397240E-04 2.08786841E-03-3.12918139E-06
 4 12 1.76426609E-04 1.04713910E-04 0.00000000E+00 0.00000000E+00 4.20106535E-05
 4 13 4.94623947E-03 9.05556585E-04 4.96936333E-03 6.34420829E-04-4.19469173E-03
 4 14-3.12440236E-04 7.33513036E-04 1.51022352E-03
 5  1-1.05978940E-02 2.22652042E-02-0.00000000E+00 1.67743810E-03-1.97450793E-03
 5  2 2.01350870E-02-0.00000000E+00 4.34371581E-05 1.05994442E-02-3.25533980E-04
 5  3 3.07692772E-04 1.10632934E-03-0.00000000E+00-0.00000000E+00-1.69877665E-04
 5  4-1.42135516E-02 2.62645676E-02-0.00000000E+00 5.37426834E-04-2.16145701E-02
 5  5 1.01679427E-02-0.00000000E+00-7.56185313E-03-8.42788286E-03-1.42123494E-03
 5  6 1.23509780E-04 7.04543052E-03-0.00000000E+00-0.00000000E+00 3.09626249E-03
 5  7-1.11338138E-01 2.12232107E-01-0.00000000E+00-1.55992835E-01-8.53077226E-02
 5  8 5.97868733E-02-0.00000000E+00 2.86611888E-02 6.65586701E-04-1.66802926E-02
 5  9 2.21418072E-02-6.53189243E-03-0.00000000E+00-0.00000000E+00 2.23392366E-02
 5 10-1.96481246E-01 4.34564304E-01-0.00000000E+00 1.19637345E-01 6.81276748E-02
 5 11 3.97600503E-01-0.00000000E+00 4.53821843E-02 2.99398341E-02-2.19947928E-03
 5 12 1.35012336E-02 2.47409459E-03-0.00000000E+00-0.00000000E+00 1.05854660E-02
 5 13 7.35281747E-03-2.58701253E-03 9.94207097E-03 5.60960410E-03 1.43134443E-03
 5 14-2.79257183E-03 2.70231071E-02-9.76320686E-03
 6  1-1.30313017E-01 2.47109315E-01 0.00000000E+00-9.88286843E-02-5.68903155E-02
 6  2 1.89367885E-01 0.00000000E+00-9.75771863E-03-1.23380171E-02-1.06856861E-02
 6  3 1.35899133E-02 5.85145650E-03 0.00000000E+00 0.00000000E+00 6.73321287E-03
 6  4-1.63700526E-01 3.13746282E-01 0.00000000E+00 7.93153462E-02-2.49474948E-03
 6  5 2.26453161E-01 0.00000000E+00-5.28017880E-03 2.17346610E-03-1.22763995E-02
 6  6 1.34238610E-02 8.01762093E-03 0.00000000E+00 0.00000000E+00 2.90962007E-03
 6  7-5.67690342E-02 1.17014974E-01 0.00000000E+00 7.17069596E-02 1.22586463E-01
 6  8 8.11755943E-02 0.00000000E+00 2.87430442E-02 2.20274546E-02-4.51402484E-03
 6  9-4.58721407E-03 1.64612883E-02 0.00000000E+00 0.00000000E+00-3.14207460E-03
 6 10 4.10296670E-02-9.45144332E-02 0.00000000E+00-2.23003330E-03 1.52916784E-02
 6 11-9.04042025E-02 0.00000000E+00 2.62714851E-03 6.11754582E-03-1.28987817E-04
 6 12-2.75194469E-03-2.07301390E-04 0.00000000E+00 0.00000000E+00 9.56390830E-04
 6 13 5.73682797E-02 8.72472851E-03 6.28210306E-02 6.86480766E-03 8.00201320E-02
 6 14 8.57210885E-03 3.55297209E-02 2.34279600E-03
 7  1 3.87153876E-02-7.53108680E-02-0.00000000E+00 1.14954126E-01-3.11292751E-02
 7  2-4.36897605E-02-0.00000000E+00 2.82645984E-02-1.29737837E-02 2.77536579E-03
 7  3-5.06214591E-03 2.15893733E-03-0.00000000E+00-0.00000000E+00-4.17047311E-03
 7  4 4.94048120E-02-9.27871867E-02-0.00000000E+00 2.11257666E-02-1.99628134E-01
 7  5-1.34699807E-01-0.00000000E+00 7.03029587E-03-4.98902844E-02 2.94260984E-03
 7  6-1.55626882E-02 1.19064613E-02-0.00000000E+00-0.00000000E+00 1.02517020E-03
 7  7-1.39762123E-01 2.94358548E-01-0.00000000E+00 1.64653286E-01-4.05668304E-02
 7  8 2.70339176E-01-0.00000000E+00 9.58963148E-02 2.16427346E-04-1.09761838E-02
 7  9 1.18456491E-02 4.78326089E-03-0.00000000E+00-0.00000000E+00-1.20347902E-02
 7 10 7.37142441E-02-1.71954201E-01-0.00000000E+00 1.63950005E-01 3.59224355E-02
 7 11-2.20531114E-01-0.00000000E+00 8.44469382E-02 2.58206771E-02-2.32606945E-03
 7 12 9.71624609E-03-5.45283933E-03-0.00000000E+00-0.00000000E+00 4.88152043E-03
 7 13-3.06587366E-02-5.37137685E-03 3.40589918E-02 3.10027733E-02-1.07607256E-01
 7 14-5.90736383E-02 1.94763887E-01 8.47769460E-02
 8  1 8.51026930E-03-1.65168638E-02 0.00000000E+00 1.81779476E-01 1.44368921E-01
 8  2 9.95974082E-03 0.00000000E+00 6.96645960E-02 6.94713462E-02 5.17066223E-04
 8  3-6.10169789E-03 1.25433460E-02 0.00000000E+00 0.00000000E+00-8.10351397E-03
 8  4 8.58169383E-03-1.83234300E-02 0.00000000E+00-2.15817211E-01-1.05270904E-01
 8  5 6.28008103E-03 0.00000000E+00-6.91009596E-02-3.23673527E-02-5.98367582E-04
 8  6-4.72966298E-03 1.24367080E-02 0.00000000E+00 0.00000000E+00-1.71412166E-03
 8  7-3.51765591E-02 8.90094291E-02 0.00000000E+00-2.70194478E-01 1.36877591E-01
 8  8 1.26509801E-02 0.00000000E+00-6.98628763E-02 6.17453086E-02-3.86548248E-03
 8  9 3.86646371E-04-7.35378985E-03 0.00000000E+00 0.00000000E+00 4.50227130E-03
 8 10 5.28003256E-02-1.20542357E-01 0.00000000E+00 1.31715370E-01 3.46306503E-01
 8 11-2.12678111E-01 0.00000000E+00 7.09955771E-02 2.04140904E-01-4.36011725E-03
 8 12 2.36675095E-03 1.27723585E-02 0.00000000E+00 0.00000000E+00 2.14073706E-02
 8 13 9.48508958E-02 6.40083231E-02 3.95765488E-02 3.37959336E-02 5.65063139E-02
 8 14 3.00213280E-02-1.20889420E-01-8.52778239E-02
 9  1-2.41087376E-03 7.64704089E-03 0.00000000E+00-1.46245848E-01 2.13003451E-01
 9  2 3.96624046E-03 0.00000000E+00-6.16994941E-02 1.01965630E-01 6.17791358E-04
 9  3-6.72001166E-03 4.86567751E-03 0.00000000E+00 0.00000000E+00 8.79236266E-03
 9  4-2.52581902E-03 3.11518493E-03 0.00000000E+00-6.97735374E-02 2.40704534E-01
 9  5 1.42092590E-02 0.00000000E+00-4.79553732E-02 9.59026386E-02-8.27148863E-05
 9  6 7.45935184E-03-3.68349231E-03 0.00000000E+00 0.00000000E+00-2.96865764E-03
 9  7-2.25910109E-02 5.12241791E-02 0.00000000E+00-2.98516977E-02-2.83887106E-01
 9  8 3.33065296E-02 0.00000000E+00 3.66552507E-02-8.41841162E-02-4.14728250E-03
 9  9 7.20850111E-03-5.63183155E-03 0.00000000E+00 0.00000000E+00 1.18307316E-03
 9 10 4.18752283E-02-9.47490520E-02 0.00000000E+00 3.04618954E-01-6.05892252E-02
 9 11-1.71284147E-01 0.00000000E+00 1.72795416E-01-4.01810633E-02-2.57113134E-03
 9 12 2.18347909E-02-9.89858446E-03 0.00000000E+00 0.00000000E+00 2.23809118E-03
 9 13 1.12601212E-01 6.64569531E-02-1.36201328E-01-9.05139262E-02 1.09020109E-01
 9 14 5.82460619E-02 8.02110086E-02 4.28244100E-02
10  1-1.06862536E-02 2.70680766E-02 0.00000000E+00-1.96054582E-01-2.62820027E-01
10  2-5.00084823E-03 0.00000000E+00-6.63064273E-02-1.11590495E-01 1.03786711E-03
10  3 1.03961186E-02-2.03954570E-02 0.00000000E+00 0.00000000E+00 5.71531758E-03
10  4-1.36395519E-02 2.94117666E-02 0.00000000E+00 2.67400142E-01 7.25872859E-02
10  5 9.68529614E-03 0.00000000E+00 1.04743438E-01 2.40894706E-02 1.05276807E-04
10  6 7.01781023E-03-1.30037175E-02 0.00000000E+00 0.00000000E+00 1.52981225E-02
10  7 4.16894803E-03 3.38818855E-03 0.00000000E+00-2.54353395E-01-9.16355758E-02
10  8-7.84352291E-02 0.00000000E+00-6.91831854E-02-1.00083447E-02-3.48085551E-03
10  9 3.88764978E-03-9.10811472E-03 0.00000000E+00 0.00000000E+00 2.51882735E-02
10 10 3.37008298E-02-7.36720934E-02 0.00000000E+00 2.81147197E-01 1.73349426E-01
10 11-1.69437549E-01 0.00000000E+00 1.66397115E-01 9.98809317E-02-3.54539618E-03
10 12 1.43314330E-02 2.44866478E-03 0.00000000E+00 0.00000000E+00 1.44708746E-02
10 13-1.68380647E-01-1.30525094E-01-4.61847464E-03-1.35308434E-02-1.03204096E-01
10 14-8.45631104E-02-1.09654264E-01-8.95176620E-02
11  1-1.78351304E-03 9.17234292E-05-0.00000000E+00 2.57356375E-01-2.20687425E-01
11  2 9.41642080E-03-0.00000000E+00 1.34828582E-01-1.60637007E-01-9.46465972E-04
11  3 1.91116297E-02-1.34605977E-02-0.00000000E+00-0.00000000E+00-2.69276754E-02
11  4-5.60105584E-03 7.95005279E-03-0.00000000E+00-2.19869742E-01 1.19191095E-01
11  5 4.57176957E-02-0.00000000E+00-1.24095653E-01 1.12205559E-01-3.46067790E-04
11  6 1.92253267E-02-1.19340285E-02-0.00000000E+00-0.00000000E+00-2.26973844E-02
11  7 2.42929883E-02-5.19194416E-02-0.00000000E+00-3.06770807E-02-1.47348778E-01
11  8-4.08331700E-02-0.00000000E+00-3.40682586E-03-4.48168142E-02 5.04326683E-05
11  9-4.56331517E-03 4.27347237E-03-0.00000000E+00-0.00000000E+00 2.75649888E-03
11 10 6.18542627E-03-1.12865378E-02-0.00000000E+00 1.51602533E-01-1.56214346E-01
11 11-4.13973469E-02-0.00000000E+00 9.57448416E-02-1.13143291E-01 7.24860405E-06
11 12 1.24876421E-02-7.64991336E-03-0.00000000E+00-0.00000000E+00-4.81048386E-03
11 13-1.34611887E-01-9.57756040E-02 2.31134209E-01 1.76548517E-01 1.82877972E-01
11 14 1.25834180E-01 3.06239614E-03 1.20431166E-02
12  1 0.00000000E+00 0.00000000E+00-8.00783438E-03 0.00000000E+00 0.00000000E+00
12  2 0.00000000E+00-1.94250555E-02 0.00000000E+00 0.00000000E+00 0.00000000E+00
12  3 0.00000000E+00 0.00000000E+00-1.01539401E-03-1.16759105E-03 0.00000000E+00
12  4 0.00000000E+00 0.00000000E+00 4.13268354E-02 0.00000000E+00 0.00000000E+00
12  5 0.00000000E+00 4.76782405E-03 0.00000000E+00 0.00000000E+00 0.00000000E+00
12  6 0.00000000E+00 0.00000000E+00-2.33416480E-03-8.82202455E-03 0.00000000E+00
12  7 0.00000000E+00 0.00000000E+00 3.21771884E-01 0.00000000E+00 0.00000000E+00
12  8 0.00000000E+00 1.99761292E-01 0.00000000E+00 0.00000000E+00 0.00000000E+00
12  9 0.00000000E+00 0.00000000E+00-3.17106127E-02-1.48199778E-02 0.00000000E+00
12 10 0.00000000E+00 0.00000000E+00 4.93891050E-01 0.00000000E+00 0.00000000E+00
12 11 0.00000000E+00 3.55971222E-01 0.00000000E+00 0.00000000E+00 0.00000000E+00
12 12 0.00000000E+00 0.00000000E+00 3.61021409E-02 1.99265318E-02 0.00000000E+00
12 13 0.00000000E+00 0.00000000E+00 0.00000000E+00 0.00000000E+00 0.00000000E+00
12 14 0.00000000E+00 0.00000000E+00 0.00000000E+00
13  1 1.74821501E-02-3.64105848E-02-0.00000000E+00-6.73820133E-02-8.27907928E-02
13  2 4.81260754E-02-0.00000000E+00-6.46285324E-02-9.13525179E-02 1.36180262E-03
13  3 8.71440283E-03-1.35958017E-02-0.00000000E+00-0.00000000E+00-3.80331373E-03
13  4 1.46102921E-02-2.49054725E-02-0.00000000E+00-1.71831550E-02 2.41457221E-01
13  5-2.11636478E-01-0.00000000E+00-1.03544977E-01 1.53621513E-01 5.33937240E-05
13  6 1.22311895E-02-1.02468114E-02-0.00000000E+00-0.00000000E+00-9.74944557E-03
13  7 1.51139629E-03-1.86870984E-02-0.00000000E+00 9.77808671E-02-1.62343345E-01
13  8 3.14267036E-02-0.00000000E+00 8.64352163E-02-6.11413231E-03-1.70639219E-03
13  9 4.10753009E-02-3.55303263E-02-0.00000000E+00-0.00000000E+00-3.41082335E-02
13 10-6.53088669E-04-6.80977472E-03-0.00000000E+00-2.61174480E-01 4.42876253E-01
13 11 4.78838852E-02-0.00000000E+00-1.95547836E-01 3.54438993E-01-2.34213859E-03
13 12-1.67843367E-02 1.10340075E-02-0.00000000E+00-0.00000000E+00 8.45933532E-03
13 13-8.50760371E-02-6.22081398E-02-5.62147834E-05 2.52931391E-02 8.94622510E-02
13 14 8.29965331E-02 1.83148453E-01 2.21006850E-01
14  1-1.13037645E-01 2.72954442E-01-0.00000000E+00 1.28449973E-01 5.69249027E-02
14  2 3.00202067E-01-0.00000000E+00 4.09224466E-02 1.90499547E-02-1.20292814E-02
14  3 6.76471797E-03 2.07757960E-02-0.00000000E+00-0.00000000E+00-9.17577632E-03
14  4 7.82868005E-02-1.89019728E-01-0.00000000E+00 1.64410334E-01 8.41530385E-02
14  5-2.48055296E-01-0.00000000E+00 4.36510035E-02 1.97961047E-02 7.05540466E-03
14  6-2.08540355E-03-1.39268665E-02-0.00000000E+00-0.00000000E+00 1.14833439E-02
14  7 3.56374151E-02-7.83463100E-02-0.00000000E+00-1.90516248E-02-1.58315861E-01
14  8-4.52368457E-02-0.00000000E+00 4.49772493E-03-1.73035860E-02 1.89220318E-03
14  9 1.33610536E-02-2.03017010E-02-0.00000000E+00-0.00000000E+00-1.38699884E-03
14 10-7.52918049E-03 1.58927193E-02-0.00000000E+00-1.59672964E-03 8.86263703E-02
14 11 2.34437402E-02-0.00000000E+00-8.81728728E-03 7.72387642E-02-1.44502582E-03
14 12 6.48105079E-04 8.74525668E-05-0.00000000E+00-0.00000000E+00 1.92068614E-03
14 13 1.51133124E-01 6.34719424E-02 1.54758424E-01 6.94384879E-02-1.29010726E-01
14 14-5.16348343E-02 2.60205218E-02 4.82392547E-02
15  1-0.00000000E+00-0.00000000E+00 3.67151653E-01-0.00000000E+00-0.00000000E+00
15  2-0.00000000E+00 2.88843891E-01-0.00000000E+00-0.00000000E+00-0.00000000E+00
15  3-0.00000000E+00-0.00000000E+00-1.75377682E-02-9.58492860E-03-0.00000000E+00
15  4-0.00000000E+00-0.00000000E+00 3.87521450E-01-0.00000000E+00-0.00000000E+00
15  5-0.00000000E+00 2.94435786E-01-0.00000000E+00-0.00000000E+00-0.00000000E+00
15  6-0.00000000E+00-0.00000000E+00 1.83921868E-02 2.19532891E-03-0.00000000E+00
15  7-0.00000000E+00-0.00000000E+00 4.90715951E-02-0.00000000E+00-0.00000000E+00
15  8-0.00000000E+00 1.79351164E-02-0.00000000E+00-0.00000000E+00-0.00000000E+00
15  9-0.00000000E+00-0.00000000E+00 1.00807480E-02 1.91780246E-02-0.00000000E+00
15 10-0.00000000E+00-0.00000000E+00-1.01171864E-01-0.00000000E+00-0.00000000E+00
15 11-0.00000000E+00-9.73545158E-02-0.00000000E+00-0.00000000E+00-0.00000000E+00
15 12-0.00000000E+00-0.00000000E+00-4.51097992E-03-1.92171742E-03-0.00000000E+00
15 13-0.00000000E+00-0.00000000E+00-0.00000000E+00-0.00000000E+00-0.00000000E+00
15 14-0.00000000E+00-0.00000000E+00-0.00000000E+00
16  1-0.00000000E+00-0.00000000E+00 5.96769715E-01-0.00000000E+00-0.00000000E+00
16  2-0.00000000E+00 3.85540839E-01-0.00000000E+00-0.00000000E+00-0.00000000E+00
16  3-0.00000000E+00-0.00000000E+00-6.09327548E-03-3.49222617E-03-0.00000000E+00
16  4-0.00000000E+00-0.00000000E+00-5.08357285E-01-0.00000000E+00-0.00000000E+00
16  5-0.00000000E+00-4.00127927E-01-0.00000000E+00-0.00000000E+00-0.00000000E+00
16  6-0.00000000E+00-0.00000000E+00 2.45720504E-02 2.46240175E-02-0.00000000E+00
16  7-0.00000000E+00-0.00000000E+00-4.81257595E-02-0.00000000E+00-0.00000000E+00
16  8-0.00000000E+00 7.18476888E-03-0.00000000E+00-0.00000000E+00-0.00000000E+00
16  9-0.00000000E+00-0.00000000E+00-8.85276290E-03-2.50584009E-02-0.00000000E+00
16 10-0.00000000E+00-0.00000000E+00 1.12397745E-01-0.00000000E+00-0.00000000E+00
16 11-0.00000000E+00 9.52383871E-02-0.00000000E+00-0.00000000E+00-0.00000000E+00
16 12-0.00000000E+00-0.00000000E+00 5.35555825E-03 3.83470565E-03-0.00000000E+00
16 13-0.00000000E+00-0.00000000E+00-0.00000000E+00-0.00000000E+00-0.00000000E+00
16 14-0.00000000E+00-0.00000000E+00-0.00000000E+00
17  1-0.00000000E+00-0.00000000E+00 5.21233947E-01-0.00000000E+00-0.00000000E+00
17  2-0.00000000E+00-5.35018661E-01-0.00000000E+00-0.00000000E+00-0.00000000E+00
17  3-0.00000000E+00-0.00000000E+00-2.11489660E-01-1.05533551E-01-0.00000000E+00
17  4-0.00000000E+00-0.00000000E+00 7.08860031E-01-0.00000000E+00-0.00000000E+00
17  5-0.00000000E+00-4.99172003E-01-0.00000000E+00-0.00000000E+00-0.00000000E+00
17  6-0.00000000E+00-0.00000000E+00 2.22677666E-01 1.35063640E-01-0.00000000E+00
17  7-0.00000000E+00-0.00000000E+00-1.38150006E-01-0.00000000E+00-0.00000000E+00
17  8-0.00000000E+00-1.13829728E-01-0.00000000E+00-0.00000000E+00-0.00000000E+00
17  9-0.00000000E+00-0.00000000E+00-4.97530052E-03-4.91751822E-02-0.00000000E+00
17 10-0.00000000E+00-0.00000000E+00 1.49047016E-01-0.00000000E+00-0.00000000E+00
17 11-0.00000000E+00 1.38585496E-01-0.00000000E+00-0.00000000E+00-0.00000000E+00
17 12-0.00000000E+00-0.00000000E+00 1.02346327E-02 6.71987880E-03-0.00000000E+00
17 13-0.00000000E+00-0.00000000E+00-0.00000000E+00-0.00000000E+00-0.00000000E+00
17 14-0.00000000E+00-0.00000000E+00-0.00000000E+00
$END
