----- GAMESS execution script 'rungms' -----
This job is running on host muhka
under operating system Linux at Mon Jan 20 05:42:17 PM CET 2025
Available scratch disk space (Kbyte units) at beginning of the job is
Filesystem                        1K-blocks     Used  Available Use% Mounted on
/dev/mapper/vg--ctom-lv--scratch 1057840472 18451800 1039388672   2% /scratch
GAMESS temporary binary files will be written to /scratch/humbel.269382
GAMESS supplementary output files will be written to /home/humbel/bin/GAMESS_UTIL/XMVB_UTIL/src
Copying input file ./b_d_HF.inp to your run's scratch directory...

 Distributed Data Interface kickoff program.
 Initiating 1 compute processes on 1 nodes to run the following command:
 /home/humbel/fuming/softwares/gamess/2020-R2/gamess.xmvb.x b_d_HF 

          *******************************************************
          *                                                     *
          *          GAMESS VERSION = 30 SEP 2020 (R2)          *
          *                                                     *
          *              doi.org/10.1063/5.0005188              *
          *                                                     *
          **************** 64 BIT LINUX VERSION *****************

  GAMESS HAS BEEN MADE POSSIBLE WITH IMPORTANT CONTRIBUTIONS FROM
  THE FOLLOWING INDIVIDUALS (IN ALPHABETICAL ORDER):

     IVANA ADAMOVIC, CHRISTINE AIKENS, TOMOKO AKAMA,
     YURI ALEXEEV, YURIKO AOKI, POOJA ARORA, TOSHIO ASADA,
     ANDREY ASADCHEV, KIM K. BALDRIDGE, PRADIPTA BANDYOPADHYAY,
     MARIA BARYSZ, ROB BELL, JONATHAN BENTZ, COLLEEN BERTONI,
     JERRY A. BOATZ, BRETT BODE, KURT BRORSEN, KURT R. BRORSEN,
     LAIMUTIS BYTAUTAS, CALEB CARLIN, LAURA CARRINGTON,
     GALINA CHABAN, BENOIT CHAMPAGNE, WEI CHEN, MAHITO CHIBA,
     DAN CHIPMAN, CHEOL HO CHOI, TANNER CULPITT,
     DIPAYAN DATTA, PAUL DAY, ALBERT DEFUSCO,
     NUWAN DESILVA, J. EMILIANO DEUSTUA,
     TIM DUDLEY, MICHEL DUPUIS, STEVEN T. ELBERT,
     DMITRI FEDOROV, ALEX FINDLATER, GRAHAM FLETCHER,
     MARK FREITAG, CHRISTIAN FRIEDL, DAVID GARMER,
     IGOR S. GERASIMOV, KURT GLAESEMANN, MARK S. GORDON,
     JEFFREY GOUR, FENG LONG GU, EMILIE B. GUIDEZ,
     ANASTASIA GUNINA, SHARON HAMMES-SCHIFFER, MASATAKE HARUTA,
     KIMIHIKO HIRAO, YASUHIRO IKABATA, TZVETELIN IORDANOV,
     STEPHAN IRLE, KAZUYA ISHIMURA, JOE IVANIC, FRANK JENSEN,
     JAN H. JENSEN, VISVALDAS KAIRYS, MUNEAKI KAMIYA,
     MICHIO KATOUDA, NAOAKI KAWAKAMI, DAN KEMP, BERNARD KIRTMAN,
     KAZUO KITAURA, MARIUSZ KLOBUKOWSKI, MASATO KOBAYASHI,
     PRAKASHAN KORAMBATH, JACEK KORCHOWIEC, SHIRO KOSEKI,
     KAROL KOWALSKI, JIMMY KROMANN, STANISLAW KUCHARSKI,
     HENRY KURTZ, SAROM SOK LEANG, HUI LI, SHUHUA LI, WEI LI,
     JESSE LUTZ, ALEKSANDR O. LYKHIN, MARCIN MAKOWSKI,
     JOANI MATO, NIKITA MATSUNAGA, BENEDETTA MENNUCCI,
     GRANT MERRILL, NORIYUKI MINEZAWA, VLADIMIR MIRONOV,
     EISAKU MIYOSHI, JOHN A. MONTGOMERY JR., HIROTOSHI MORI,
     JONATHAN MULLIN, MONIKA MUSIAL, SHIGERU NAGASE,
     TAKESHI NAGATA, HIROMI NAKAI, TAKAHITO NAKAJIMA,
     YUYA NAKAJIMA, HARUYUKI NAKANO, HIROYA NAKATA, SEAN NEDD,
     HEATHER NETZLOFF, KIET A. NGUYEN, YOSHIO NISHIMOTO,
     BOSILJKA NJEGIC, RYAN OLSON, MIKE PAK, ROBERTO PEVERATI,
     BUU PHAM, PIOTR PIECUCH, ANNA POMOGAEVA, DAVID POOLE,
     SPENCER PRUITT, OLIVIER QUINET, LUKE ROSKOP,
     KLAUS RUEDENBERG, ANDREW SAND, TOSAPORN SATTASATHUCHANA,
     NOZOMI SAWADA, MICHAEL W. SCHMIDT, PATRICK E. SCHNEIDER,
     JUNJI SEINO, PRACHI SHARMA, JUN SHEN, JIM SHOEMAKER,
     YINAN SHU, DEJUN SI, JONATHAN SKONE, LYUDMILA SLIPCHENKO,
     TONY SMITH, JIE SONG, MARK SPACKMAN, CASPER STEINMANN,
     WALT STEVENS, PEIFENG SU, SHUJUN SU, CHET SWALINA,
     TETSUYA TAKETSUGU, ZHEN TAO, NANDUN THELLAMUREGE
     SEIKEN TOKURA, JACOPO TOMASI, TSUGUKI TOUMA, TAKAO TSUNEDA,
     HIROAKI UMEDA, JORGE LUIS GALVEZ VALLEJO, YALI WANG,
     SIMON WEBB, AARON WEST, THERESA L. WINDUS, MARTA WLOCH,
     PENG XU, KIYOSHI YAGI, SUSUMU YANAGISAWA, YANG YANG,
     SOOHAENG YOO, TAKESHI YOSHIKAWA, FEDERICO ZAHARIEV,
     TOBY ZENG

  WHO ARE SUPPORTED BY THEIR INSTITUTION/UNIVERSITY/COMPANY/GROUP
  (IN ALPHABETICAL ORDER):

     EP ANALYTICS, FACULTES UNIVERSITAIRES NOTRE-DAME DE LA PAIX,
     INSTITUTE FOR MOLECULAR SCIENCE, IOWA STATE UNIVERSITY,
     JACKSON STATE UNIVERSITY, JOHANNES KEPLER UNIVERSITY LINZ,
     KYUSHU UNIVERSITY, MICHIGAN STATE UNIVERSITY,
     MIE UNIVERSITY, MOSCOW STATE UNIVERSITY,
     N. COPERNICUS UNIVERSITY, NAGOYA UNIVERSITY,
     NANJING UNIVERSITY, NAT. INST. OF ADVANCED INDUSTRIAL
     SCIENCE AND TECHNOLOGY, NATIONAL INST. OF STANDARDS AND
     TECHNOLOGY, NESMEYANOV INSTITUTE OF ORGANOELEMENT COMPOUNDS
     OF RUSSIAN ACADEMY OF SCIENCES, OSAKA PREFECTURE UNIVERSITY,
     PENNSYLVANIA STATE UNIVERSITY, TOKYO INSTITUTE OF TECHNOLOGY,
     UNIVERSITY OF AARHUS, UNIVERSITY OF ALBERTA,
     UNIVERSITY OF CALIFORNIA AT SANTA BARBARA,
     UNIVERSITY OF COPENHAGEN, UNIVERSITY OF IOWA,
     UNIVERSITY OF MEMPHIS, UNIVERSITY OF MINNESOTA,
     UNIVERSITY OF NEBRASKA, UNIVERSITY OF NEW ENGLAND,
     UNIVERSITY OF NOTRE DAME, UNIVERSITY OF PISA,
     UNIVERSITY OF SILESIA, UNIVERSITY OF TOKYO,
     UNIVERSITY OF ZURICH, WASEDA UNIVERSITY, YALE UNIVERSITY

  GAMESS SOFTWARE MANAGEMENT TEAM FOR THIS RELEASE:
     MARK S. GORDON (TEAM LEAD),
     BRETT BODE (SENIOR ADVISOR),
     GIUSEPPE BARCA,
     COLLEEN BERTONI,
     KRISTOPHER KEIPERT (ADVISOR),
     SAROM S. LEANG (DEVELOPMENT LEAD),
     BUU PHAM,
     JORGE LUIS GALVEZ VALLEJO (WEBSITE ADMINISTRATOR),
     PENG XU

 EXECUTION OF GAMESS BEGUN 17:42:17 20-JAN-2025    

            ECHO OF THE FIRST FEW INPUT CARDS -
 INPUT CARD>!   File created by MacMolPlt 7.7.2                                             
 INPUT CARD>! $CONTRL SCFTYP=RHF RUNTYP=ENERGY COORD=UNIQUE  MAXIT=30 MULT=1 $END           
 INPUT CARD> $CONTRL SCFTYP=MCSCF RUNTYP=ENERGY COORD=UNIQUE  MAXIT=30 MULT=1 $END          
 INPUT CARD>! $CONTRL SCFTYP=RHF RUNTYP=ENERGY COORD=UNIQUE  MAXIT=30 MULT=1 $END           
 INPUT CARD>! $CONTRL  VBTYP=XMVB                   $END                                    
 INPUT CARD> $SYSTEM TIMLIM=525600 MEMORY=2185666 $END                                      
 INPUT CARD> $MCSCF CISTEP=GUGA MAXIT=200 QUAD=.F. $END                                     
 INPUT CARD> $DRT    GROUP=C1  FORS=.TRUE. NMCC=18 NDOC=3 NVAL=0 $END                       
 INPUT CARD> $GUGDIA NSTATE=1 PRTTOL=0.01 $END                                              
 INPUT CARD> $GUGDM2 WSTATE(1)=1.0 $END                                                     
 INPUT CARD> $BASIS GBASIS=N31 NGAUSS=6 NDFUNC=1 $END                                       
 INPUT CARD> $GUESS GUESS=MOREAD                                                            
 INPUT CARD>  NORB=30                                                                       
 INPUT CARD> $END                                                                           
 INPUT CARD>!  take 30 but need 24                                                          
 INPUT CARD>!  norder=1 iorder(17)=18,19,17,20,21,22,23,30,24,25,26,27,28,29 !  reorder from
 INPUT CARD> $SCF DIRSCF=.TRUE. $END                                                        
 INPUT CARD> $DATA                                                                          
 INPUT CARD>anthracene opt C2H gaussian                                                     
 INPUT CARD>C1                                                                              
 INPUT CARD>C  6.0     0.00000      0.00000      0.00000                                    
 INPUT CARD>C  6.0     1.39400      0.00000      0.00000                                    
 INPUT CARD>C  6.0     2.09099      1.20724     -0.00000                                    
 INPUT CARD>C  6.0     1.39398      2.41448     -0.00000                                    
 INPUT CARD>C  6.0    -0.00002      2.41447      0.00000                                    
 INPUT CARD>C  6.0    -0.69701      1.20723      0.00000                                    
 INPUT CARD>H  1.0     1.93675     -0.94007     -0.00000                                    
 INPUT CARD>H  1.0     3.17649      1.20725     -0.00000                                    
 INPUT CARD>H  1.0     1.93672      3.35455     -0.00000                                    
 INPUT CARD>H  1.0    -1.78251      1.20722      0.00000                                    
 INPUT CARD>H  1.0    -0.54278      3.35454      0.00000                                    
 INPUT CARD>H  1.0    -0.54274     -0.94007      0.00000                                    
 INPUT CARD> $END                                                                           
 INPUT CARD> $VEC                                                                           
 INPUT CARD> 1  1 4.05721162E-01 1.11473696E-02-1.60490913E-05-2.77430356E-05-0.00000000E+00
 INPUT CARD> 1  2-2.19009260E-03 1.60773116E-04 2.77962744E-04-0.00000000E+00-9.70988528E-04
 INPUT CARD> 1  3-9.46574280E-04-1.10601923E-03 2.43869098E-05-0.00000000E+00-0.00000000E+00
 INPUT CARD> 1  4 4.06144403E-01 1.11592542E-02 1.58782494E-05-2.77426928E-05-0.00000000E+00
 INPUT CARD> 1  5-2.19435220E-03-1.59448024E-04 2.78346596E-04-0.00000000E+00-9.71799191E-04
 INPUT CARD> 1  6-9.47496464E-04-1.10706438E-03-2.43668581E-05-0.00000000E+00-0.00000000E+00
 INPUT CARD> 1  7 4.06596294E-01 1.11719204E-02 3.18872637E-05-7.11725757E-08-0.00000000E+00
 INPUT CARD> 1  8-2.19842195E-03-3.20481057E-04 6.01168420E-07-0.00000000E+00-9.36304493E-04
 INPUT CARD> 1  9-9.84965755E-04-1.10818194E-03 1.44261146E-08-0.00000000E+00-0.00000000E+00
 INPUT CARD> 1 10 4.06635432E-01 1.11730014E-02 1.59334696E-05 2.76415738E-05-0.00000000E+00
 INPUT CARD> 1 11-2.19760956E-03-1.60279858E-04-2.77978880E-04-0.00000000E+00-9.72994764E-04
 INPUT CARD> 1 12-9.48642829E-04-1.10830456E-03 2.43663338E-05-0.00000000E+00-0.00000000E+00
 INPUT CARD> 1 13 4.06446389E-01 1.11677270E-02-1.60396822E-05 2.75805722E-05-0.00000000E+00
 INPUT CARD> 1 14-2.19735056E-03 1.60978338E-04-2.77109406E-04-0.00000000E+00-9.72463275E-04
 INPUT CARD> 1 15-9.48111113E-04-1.10780744E-03-2.43176445E-05-0.00000000E+00-0.00000000E+00
 INPUT CARD> 1 16 4.05938726E-01 1.11534748E-02-3.20035255E-05-9.67620727E-08-0.00000000E+00
    2185666 WORDS OF MEMORY AVAILABLE

     BASIS OPTIONS
     -------------
     GBASIS=N31          IGAUSS=       6      POLAR=POPN31  
     NDFUNC=       1     NFFUNC=       0     DIFFSP=       F
     NPFUNC=       0      DIFFS=       F     BASNAM=        


     RUN TITLE
     ---------
 anthracene opt C2H gaussian                                                     

 THE POINT GROUP OF THE MOLECULE IS C1      
 THE ORDER OF THE PRINCIPAL AXIS IS     0

 ATOM      ATOMIC                      COORDINATES (BOHR)
           CHARGE         X                   Y                   Z
 C           6.0     0.0000000000        0.0000000000        0.0000000000
 C           6.0     2.6342780269        0.0000000000        0.0000000000
 C           6.0     3.9513981431        2.2813528014       -0.0000000000
 C           6.0     2.6342402324        4.5627056028       -0.0000000000
 C           6.0    -0.0000377945        4.5626867056        0.0000000000
 C           6.0    -1.3171579107        2.2813339042        0.0000000000
 H           1.0     3.6599268067       -1.7764747093       -0.0000000000
 H           1.0     6.0026957027        2.2813716987       -0.0000000000
 H           1.0     3.6598701149        6.3391803121       -0.0000000000
 H           1.0    -3.3684554704        2.2813150069        0.0000000000
 H           1.0    -1.0257054716        6.3391614149        0.0000000000
 H           1.0    -1.0256298826       -1.7764747093        0.0000000000

          INTERNUCLEAR DISTANCES (ANGS.)
          ------------------------------

                1 C          2 C          3 C          4 C          5 C     

   1 C       0.0000000    1.3940000 *  2.4144705 *  2.7879910 *  2.4144700 *
   2 C       1.3940000 *  0.0000000    1.3939955 *  2.4144800 *  2.7880024 *
   3 C       2.4144705 *  1.3939955 *  0.0000000    1.3940055 *  2.4144828 *
   4 C       2.7879910 *  2.4144800 *  1.3940055 *  0.0000000    1.3940000 *
   5 C       2.4144700 *  2.7880024 *  2.4144828 *  1.3940000 *  0.0000000  
   6 C       1.3939968 *  2.4144828 *  2.7880000 *  2.4144755 *  1.3939955 *
   7 H       2.1528428 *  1.0854995 *  2.1528424 *  3.3981767    3.8735019  
   8 H       3.3981673    2.1528407 *  1.0855000 *  2.1528461 *  3.3981754  
   9 H       3.8734855    3.3981687    2.1528445 *  1.0854945 *  2.1528382 *
  10 H       2.1528405 *  3.3981754    3.8735000    3.3981709    2.1528407 *
  11 H       3.3981684    3.8735069    3.3981821    2.1528474 *  1.0855045 *
  12 H       1.0854945 *  2.1528338 *  3.3981574    3.8734855    3.3981589  

                6 C          7 H          8 H          9 H         10 H     

   1 C       1.3939968 *  2.1528428 *  3.3981673    3.8734855    2.1528405 *
   2 C       2.4144828 *  1.0854995 *  2.1528407 *  3.3981687    3.3981754  
   3 C       2.7880000 *  2.1528424 *  1.0855000 *  2.1528445 *  3.8735000  
   4 C       2.4144755 *  3.3981767    2.1528461 *  1.0854945 *  3.3981709  
   5 C       1.3939955 *  3.8735019    3.3981754    2.1528382 *  2.1528407 *
   6 C       0.0000000    3.3981744    3.8735000    3.3981638    1.0855000 *
   7 H       3.3981744    0.0000000    2.4795037 *  4.2946200    4.2946186  
   8 H       3.8735000    2.4795037 *  0.0000000    2.4795013 *  4.9590000  
   9 H       3.3981638    4.2946200    2.4795013 *  0.0000000    4.2946127  
  10 H       1.0855000 *  4.2946186    4.9590000    4.2946127    0.0000000  
  11 H       2.1528416 *  4.9590064    4.2946273    2.4795000 *  2.4794987 *
  12 H       2.1528345 *  2.4794900 *  4.2946077    4.9589800    2.4794927 *

               11 H         12 H     

   1 C       3.3981684    1.0854945 *
   2 C       3.8735069    2.1528338 *
   3 C       3.3981821    3.3981574  
   4 C       2.1528474 *  3.8734855  
   5 C       1.0855045 *  3.3981589  
   6 C       2.1528416 *  2.1528345 *
   7 H       4.9590064    2.4794900 *
   8 H       4.2946273    4.2946077  
   9 H       2.4795000 *  4.9589800  
  10 H       2.4794987 *  2.4794927 *
  11 H       0.0000000    4.2946100  
  12 H       4.2946100    0.0000000  

  * ... LESS THAN  3.000


     ATOMIC BASIS SET
     ----------------
 THE CONTRACTED PRIMITIVE FUNCTIONS HAVE BEEN UNNORMALIZED
 THE CONTRACTED BASIS FUNCTIONS ARE NOW NORMALIZED TO UNITY

  SHELL TYPE  PRIMITIVE        EXPONENT          CONTRACTION COEFFICIENT(S)

 C         

      1   S       1          3047.5248800    0.001834737132
      1   S       2           457.3695180    0.014037322813
      1   S       3           103.9486850    0.068842622264
      1   S       4            29.2101553    0.232184443216
      1   S       5             9.2866630    0.467941348435
      1   S       6             3.1639270    0.362311985337

      2   L       7             7.8682723   -0.119332419775    0.068999066591
      2   L       8             1.8812885   -0.160854151696    0.316423960957
      2   L       9             0.5442493    1.143456437840    0.744308290898

      3   L      10             0.1687145    1.000000000000    1.000000000000

      4   D      11             0.8000000    1.000000000000

 C         

      5   S      12          3047.5248800    0.001834737132
      5   S      13           457.3695180    0.014037322813
      5   S      14           103.9486850    0.068842622264
      5   S      15            29.2101553    0.232184443216
      5   S      16             9.2866630    0.467941348435
      5   S      17             3.1639270    0.362311985337

      6   L      18             7.8682723   -0.119332419775    0.068999066591
      6   L      19             1.8812885   -0.160854151696    0.316423960957
      6   L      20             0.5442493    1.143456437840    0.744308290898

      7   L      21             0.1687145    1.000000000000    1.000000000000

      8   D      22             0.8000000    1.000000000000

 C         

      9   S      23          3047.5248800    0.001834737132
      9   S      24           457.3695180    0.014037322813
      9   S      25           103.9486850    0.068842622264
      9   S      26            29.2101553    0.232184443216
      9   S      27             9.2866630    0.467941348435
      9   S      28             3.1639270    0.362311985337

     10   L      29             7.8682723   -0.119332419775    0.068999066591
     10   L      30             1.8812885   -0.160854151696    0.316423960957
     10   L      31             0.5442493    1.143456437840    0.744308290898

     11   L      32             0.1687145    1.000000000000    1.000000000000

     12   D      33             0.8000000    1.000000000000

 C         

     13   S      34          3047.5248800    0.001834737132
     13   S      35           457.3695180    0.014037322813
     13   S      36           103.9486850    0.068842622264
     13   S      37            29.2101553    0.232184443216
     13   S      38             9.2866630    0.467941348435
     13   S      39             3.1639270    0.362311985337

     14   L      40             7.8682723   -0.119332419775    0.068999066591
     14   L      41             1.8812885   -0.160854151696    0.316423960957
     14   L      42             0.5442493    1.143456437840    0.744308290898

     15   L      43             0.1687145    1.000000000000    1.000000000000

     16   D      44             0.8000000    1.000000000000

 C         

     17   S      45          3047.5248800    0.001834737132
     17   S      46           457.3695180    0.014037322813
     17   S      47           103.9486850    0.068842622264
     17   S      48            29.2101553    0.232184443216
     17   S      49             9.2866630    0.467941348435
     17   S      50             3.1639270    0.362311985337

     18   L      51             7.8682723   -0.119332419775    0.068999066591
     18   L      52             1.8812885   -0.160854151696    0.316423960957
     18   L      53             0.5442493    1.143456437840    0.744308290898

     19   L      54             0.1687145    1.000000000000    1.000000000000

     20   D      55             0.8000000    1.000000000000

 C         

     21   S      56          3047.5248800    0.001834737132
     21   S      57           457.3695180    0.014037322813
     21   S      58           103.9486850    0.068842622264
     21   S      59            29.2101553    0.232184443216
     21   S      60             9.2866630    0.467941348435
     21   S      61             3.1639270    0.362311985337

     22   L      62             7.8682723   -0.119332419775    0.068999066591
     22   L      63             1.8812885   -0.160854151696    0.316423960957
     22   L      64             0.5442493    1.143456437840    0.744308290898

     23   L      65             0.1687145    1.000000000000    1.000000000000

     24   D      66             0.8000000    1.000000000000

 H         

     25   S      67            18.7311370    0.033494604338
     25   S      68             2.8253944    0.234726953484
     25   S      69             0.6401217    0.813757326146

     26   S      70             0.1612778    1.000000000000

 H         

     27   S      71            18.7311370    0.033494604338
     27   S      72             2.8253944    0.234726953484
     27   S      73             0.6401217    0.813757326146

     28   S      74             0.1612778    1.000000000000

 H         

     29   S      75            18.7311370    0.033494604338
     29   S      76             2.8253944    0.234726953484
     29   S      77             0.6401217    0.813757326146

     30   S      78             0.1612778    1.000000000000

 H         

     31   S      79            18.7311370    0.033494604338
     31   S      80             2.8253944    0.234726953484
     31   S      81             0.6401217    0.813757326146

     32   S      82             0.1612778    1.000000000000

 H         

     33   S      83            18.7311370    0.033494604338
     33   S      84             2.8253944    0.234726953484
     33   S      85             0.6401217    0.813757326146

     34   S      86             0.1612778    1.000000000000

 H         

     35   S      87            18.7311370    0.033494604338
     35   S      88             2.8253944    0.234726953484
     35   S      89             0.6401217    0.813757326146

     36   S      90             0.1612778    1.000000000000

 TOTAL NUMBER OF BASIS SET SHELLS             =   36
 NUMBER OF CARTESIAN GAUSSIAN BASIS FUNCTIONS =  102
 NUMBER OF ELECTRONS                          =   42
 CHARGE OF MOLECULE                           =    0
 SPIN MULTIPLICITY                            =    1
 NUMBER OF OCCUPIED ORBITALS (ALPHA)          =   21
 NUMBER OF OCCUPIED ORBITALS (BETA )          =   21
 TOTAL NUMBER OF ATOMS                        =   12
 THE NUCLEAR REPULSION ENERGY IS      203.5533822373

     $CONTRL OPTIONS
     ---------------
 SCFTYP=MCSCF        RUNTYP=ENERGY       EXETYP=RUN     
 MPLEVL=       0     CITYP =NONE         CCTYP =NONE         VBTYP =NONE    
 DFTTYP=NONE         TDDFT =NONE    
 MULT  =       1     ICHARG=       0     NZVAR =       0     COORD =UNIQUE  
 PP    =NONE         RELWFN=NONE         LOCAL =NONE         NUMGRD=       F
 ISPHER=      -1     NOSYM =       0     MAXIT =      30     UNITS =ANGS    
 PLTORB=       F     MOLPLT=       F     AIMPAC=       F     FRIEND=        
 NPRINT=       7     IREST =       0     GEOM  =INPUT   
 NORMF =       0     NORMP =       0     ITOL  =      20     ICUT  =       9
 INTTYP=BEST         GRDTYP=BEST         QMTTOL= 1.0E-06

     $SYSTEM OPTIONS
     ---------------
  REPLICATED MEMORY=     2185666 WORDS (ON EVERY NODE).
 DISTRIBUTED MEMDDI=           0 MILLION WORDS IN AGGREGATE,
 MEMDDI DISTRIBUTED OVER   1 PROCESSORS IS           0 WORDS/PROCESSOR.
 TOTAL MEMORY REQUESTED ON EACH PROCESSOR=     2185666 WORDS.
 TIMLIM=      525600.00 MINUTES, OR     365.0 DAYS.
 PARALL= F  BALTYP=  DLB     KDIAG=    0  COREFL= F
 MXSEQ2=     300 MXSEQ3=     150  mem10=         0  mem22=         0

 Using Gaussians for PCM contribution to MEP, params: 0.10000E+01 0.10000E-07

          ----------------
          PROPERTIES INPUT
          ----------------

     MOMENTS            FIELD           POTENTIAL          DENSITY
 IEMOM =       1   IEFLD =       0   IEPOT =       0   IEDEN =       0
 WHERE =COMASS     WHERE =NUCLEI     WHERE =NUCLEI     WHERE =NUCLEI  
 OUTPUT=BOTH       OUTPUT=BOTH       OUTPUT=BOTH       OUTPUT=BOTH    
 IEMINT=       0   IEFINT=       0                     IEDINT=       0
                                                       MORB  =       0

     -------------------------------
     INTEGRAL TRANSFORMATION OPTIONS
     -------------------------------
     NWORD  =            0
     CUTOFF = 1.0E-09     MPTRAN =       0
     DIRTRF =       F     AOINTS =DUP     

          ----------------------
          MCSCF INPUT PARAMETERS
          ----------------------
 CONVERGER SELECTION: FOCAS = F  SOSCF = T  FULLNR = F  QUD = F  JACOBI = F
 SECULAR EQUATION METHOD CISTEP = GUGA    
 --- GENERAL INPUT OPTIONS:
 MAXIT =     200  MICIT =       5  ACURCY= 1.000E-05
 DAMP  =   0.000  CANONC=       T  ENGTOL= 1.000E-10
 EKT   =       F  NPUNCH=       2  NWORD =         0
 REGENERATE CI AFTER CONVERGENCE = NONE    
 DIABATIZATION AFTER CONVERGENCE =        F
 --- INPUT FOR SOSCF CONVERGER:
 FORS  =       T  NOFO  =       1

          ----------------------
          INTEGRAL INPUT OPTIONS
          ----------------------
 NOPK  =       1 NORDER=       0 SCHWRZ=       T

     ------------------------------------------
     THE POINT GROUP IS C1 , NAXIS= 0, ORDER= 1
     ------------------------------------------

     DIMENSIONS OF THE SYMMETRY SUBSPACES ARE
 A   =  102

 ..... DONE SETTING UP THE RUN .....
 STEP CPU TIME =     0.05 TOTAL CPU TIME =          0.1 (      0.0 MIN)
 TOTAL WALL CLOCK TIME=          0.1 SECONDS, CPU UTILIZATION IS    95.98%

          ********************
          1 ELECTRON INTEGRALS
          ********************
 TIME TO DO   DIPOLE INTEGRALS=      0.01
 ...... END OF ONE-ELECTRON INTEGRALS ......
 STEP CPU TIME =     0.01 TOTAL CPU TIME =          0.1 (      0.0 MIN)
 TOTAL WALL CLOCK TIME=          0.1 SECONDS, CPU UTILIZATION IS    96.49%

          -------------
          GUESS OPTIONS
          -------------
          GUESS =MOREAD            NORB  =      30          NORDER=       0
          MIX   =       F          PRTMO =       F          PUNMO =       F
          TOLZ  = 1.0E-08          TOLE  = 1.0E-05
          SYMDEN=       F          PURIFY=       F

 INITIAL GUESS ORBITALS GENERATED BY MOREAD   ROUTINE.

 SYMMETRIES FOR INITIAL GUESS ORBITALS FOLLOW.   BOTH SET(S).
    21 ORBITALS ARE OCCUPIED (    6 CORE ORBITALS).
     1=A        2=A        3=A        4=A        5=A        6=A        7=A   
     8=A        9=A       10=A       11=A       12=A       13=A       14=A   
    15=A       16=A       17=A       18=A       19=A       20=A       21=A   
    22=A       23=A       24=A       25=A       26=A       27=A       28=A   
    29=A       30=A       31=A       32=A       33=A       34=A       35=A   
    36=A       37=A       38=A       39=A       40=A       41=A       42=A   
    43=A       44=A       45=A       46=A       47=A       48=A       49=A   
    50=A       51=A       52=A       53=A       54=A       55=A       56=A   
    57=A       58=A       59=A       60=A       61=A       62=A       63=A   
    64=A       65=A       66=A       67=A       68=A       69=A       70=A   
    71=A       72=A       73=A       74=A       75=A       76=A       77=A   
    78=A       79=A       80=A       81=A       82=A       83=A       84=A   
    85=A       86=A       87=A       88=A       89=A       90=A       91=A   
    92=A       93=A       94=A       95=A       96=A       97=A       98=A   
    99=A      100=A      101=A      102=A   
 ...... END OF INITIAL ORBITAL SELECTION ......
 STEP CPU TIME =     0.01 TOTAL CPU TIME =          0.1 (      0.0 MIN)
 TOTAL WALL CLOCK TIME=          0.1 SECONDS, CPU UTILIZATION IS    96.85%

                    ----------------------
                    AO INTEGRAL TECHNOLOGY
                    ----------------------
     S,P,L SHELL ROTATED AXIS INTEGRALS, REPROGRAMMED BY
        KAZUYA ISHIMURA (IMS) AND JOSE SIERRA (SYNSTAR).
     S,P,D,L SHELL ROTATED AXIS INTEGRALS PROGRAMMED BY
        KAZUYA ISHIMURA (INSTITUTE FOR MOLECULAR SCIENCE).
     S,P,D,F,G SHELL TO TOTAL QUARTET ANGULAR MOMENTUM SUM 5,
        ERIC PROGRAM BY GRAHAM FLETCHER (ELORET AND NASA ADVANCED
        SUPERCOMPUTING DIVISION, AMES RESEARCH CENTER).
     S,P,D,F,G,L SHELL GENERAL RYS QUADRATURE PROGRAMMED BY
        MICHEL DUPUIS (PACIFIC NORTHWEST NATIONAL LABORATORY).

          --------------------
          2 ELECTRON INTEGRALS
          --------------------

 THE -PK- OPTION IS OFF, THE INTEGRALS ARE NOT IN SUPERMATRIX FORM.
 STORING   15000 INTEGRALS/RECORD ON DISK, USING 12 BYTES/INTEGRAL.
 TWO ELECTRON INTEGRAL EVALUATION REQUIRES   91062 WORDS OF MEMORY.
 SCHWARZ INEQUALITY OVERHEAD:      5250 INTEGRALS, T=        0.00
 II,JST,KST,LST =  1  1  1  1 NREC =         1 INTLOC =    1
 II,JST,KST,LST =  2  1  1  1 NREC =         1 INTLOC =    2
 II,JST,KST,LST =  3  1  1  1 NREC =         1 INTLOC =   34
 II,JST,KST,LST =  4  1  1  1 NREC =         1 INTLOC =  214
 II,JST,KST,LST =  5  1  1  1 NREC =         1 INTLOC = 1189
 II,JST,KST,LST =  6  1  1  1 NREC =         1 INTLOC = 1866
 II,JST,KST,LST =  7  1  1  1 NREC =         1 INTLOC = 5596
 II,JST,KST,LST =  8  1  1  1 NREC =         1 INTLOC =12130
 II,JST,KST,LST =  9  1  1  1 NREC =         2 INTLOC =13697
 II,JST,KST,LST = 10  1  1  1 NREC =         3 INTLOC = 6559
 II,JST,KST,LST = 11  1  1  1 NREC =         6 INTLOC = 1564
 II,JST,KST,LST = 12  1  1  1 NREC =         9 INTLOC =12478
 II,JST,KST,LST = 13  1  1  1 NREC =        17 INTLOC =10071
 II,JST,KST,LST = 14  1  1  1 NREC =        19 INTLOC = 1367
 II,JST,KST,LST = 15  1  1  1 NREC =        26 INTLOC =13949
 II,JST,KST,LST = 16  1  1  1 NREC =        36 INTLOC =14909
 II,JST,KST,LST = 17  1  1  1 NREC =        55 INTLOC =10318
 II,JST,KST,LST = 18  1  1  1 NREC =        58 INTLOC =13305
 II,JST,KST,LST = 19  1  1  1 NREC =        76 INTLOC = 5289
 II,JST,KST,LST = 20  1  1  1 NREC =        97 INTLOC =10846
 II,JST,KST,LST = 21  1  1  1 NREC =       135 INTLOC = 4328
 II,JST,KST,LST = 22  1  1  1 NREC =       141 INTLOC =10338
 II,JST,KST,LST = 23  1  1  1 NREC =       174 INTLOC = 8123
 II,JST,KST,LST = 24  1  1  1 NREC =       213 INTLOC = 5966
 II,JST,KST,LST = 25  1  1  1 NREC =       279 INTLOC = 6669
 II,JST,KST,LST = 26  1  1  1 NREC =       291 INTLOC =  219
 II,JST,KST,LST = 27  1  1  1 NREC =       305 INTLOC = 2035
 II,JST,KST,LST = 28  1  1  1 NREC =       317 INTLOC = 4104
 II,JST,KST,LST = 29  1  1  1 NREC =       332 INTLOC = 3902
 II,JST,KST,LST = 30  1  1  1 NREC =       345 INTLOC = 6105
 II,JST,KST,LST = 31  1  1  1 NREC =       361 INTLOC = 8692
 II,JST,KST,LST = 32  1  1  1 NREC =       374 INTLOC =13697
 II,JST,KST,LST = 33  1  1  1 NREC =       391 INTLOC =14523
 II,JST,KST,LST = 34  1  1  1 NREC =       406 INTLOC =12042
 II,JST,KST,LST = 35  1  1  1 NREC =       425 INTLOC = 3055
 II,JST,KST,LST = 36  1  1  1 NREC =       440 INTLOC =12686
 SCHWARZ INEQUALITY TEST SKIPPED       29888 INTEGRAL BLOCKS.
 TOTAL NUMBER OF NONZERO TWO-ELECTRON INTEGRALS =             6891579
        460 INTEGRAL RECORDS WERE STORED ON DISK FILE  8.
  ...... END OF TWO-ELECTRON INTEGRALS .....
 STEP CPU TIME =     0.97 TOTAL CPU TIME =          1.0 (      0.0 MIN)
 TOTAL WALL CLOCK TIME=          1.0 SECONDS, CPU UTILIZATION IS    99.62%

          -----------------
          MCSCF CALCULATION
          -----------------

 ----- NUCLEAR ENERGY ----- =       203.5533822373

          -----------------------     ----------------------------
          GUGA DISTINCT ROW TABLE     WRITTEN BY B.R.BROOKS,P.SAXE
          -----------------------     ----------------------------

      GROUP=C1           NPRT=       0
       FORS=       T   INTACT=       F
       FOCI=       F   MXNINT=   50000
       SOCI=       F   MXNEME=   10000
     IEXCIT=       0

      -CORE-    -INTERNAL-  -EXTERNAL-
     NFZC=   0   NDOC=   3   NEXT=   0
     NMCC=  18   NAOS=   0   NFZV=   0
                 NBOS=   0
                 NALP=   0
                 NVAL=   0

 THE MAXIMUM ELECTRON EXCITATION WILL BE   0

 SYMMETRIES FOR THE  18 CORE,   3 ACTIVE,   0 EXTERNAL MO-S ARE
     CORE= A     A     A     A     A     A     A     A     A     A   
           A     A     A     A     A     A     A     A   
   ACTIVE= A     A     A   
           DOC   DOC   DOC 

 MOLECULAR CHARGE          =    0
 NUMBER OF ALPHA ELECTRONS =   21
 NUMBER OF  BETA ELECTRONS =   21

 THE ELECTRONIC STATE IS  1-A   

 THE DISTINCT ROW TABLE HAS         4 ROWS.
  THE WAVEFUNCTION CONTAINS         1 WALKS (CSF-S).

 TOTAL NUMBER OF INTEGRALS =         29
 NUMBER OF INTEGRALS/GROUP =         29
 NUMBER OF INTEGRAL GROUPS =          1
 MAXIMUM RECORD SIZES ARE     500 FOR UNIT 11      22 FOR UNIT 12
                            30001 FOR UNIT 15   30001 FOR UNIT 16
 ...... END OF -DRT- GENERATION ...... 
 STEP CPU TIME =     0.01 TOTAL CPU TIME =          1.1 (      0.0 MIN)
 TOTAL WALL CLOCK TIME=          1.1 SECONDS, CPU UTILIZATION IS    99.63%
 OPENING FILE DAFL30 WITH      81 LOGICAL RECORDS OF   10404 WORDS
 WITH A MAXIMUM OF         486 PHYSICAL RECORDS OF    2048 WORDS

          ------------------------------
          CASSCF INTEGRAL TRANSFORMATION
          ------------------------------
 AO INTEGRALS WILL BE READ IN FROM DISK...

 NUMBER OF CORE MOLECULAR ORBITALS     =    18
 NUMBER OF OCCUPIED MOLECULAR ORBITALS =    21
 TOTAL NUMBER OF MOLECULAR ORBITALS    =   102
 TOTAL NUMBER OF ATOMIC ORBITALS       =   102

 ----- CHOOSING THREE STEPS TRANSFORMATION -----
 NUMBER OF WORDS USED      =    1725202
 NUMBER OF WORDS AVAILABLE =    2185665
 NUMBER OF PASSES          =          1

 ----- NUCLEAR REPULSION ENERGY =    203.55338224
 ----- FROZEN CORE ENERGY       =   -427.85468293

 ... SYMMETRY ...           CPU =    0.00
 ... (PQ|RS) -> (PQ|KL) ... CPU =    0.24
 ... (PQ|KL) -> (IJ|KL) ... CPU =    0.00

 NUMBER OF (PQ|KL) INTEGRALS WRITTEN      19815
 NUMBER OF (IJ|KL) INTEGRALS WRITTEN         21
 ..... END OF CAS INTEGRAL TRANSFORMATION .....
 STEP CPU TIME =     0.25 TOTAL CPU TIME =          1.3 (      0.0 MIN)
 TOTAL WALL CLOCK TIME=          1.3 SECONDS, CPU UTILIZATION IS    99.69%

          ------------------------
          GUGA-CI INTEGRAL SORTING
          ------------------------

     80031 WORDS NEEDED TO SORT             29 GUGA INTEGRALS IN MEMORY
   2185665 WORDS ARE AVAILABLE
 CHOOSING IN-MEMORY SORTING...
 IN CORE ALGORITHM SORTED              6 NON-ZERO 1E- INTEGRALS
 IN CORE ALGORITHM SORTED             21 NON-ZERO 2E- INTEGRALS
 ...... END OF INTEGRAL SORTING ...... 
 STEP CPU TIME =     0.00 TOTAL CPU TIME =          1.3 (      0.0 MIN)
 TOTAL WALL CLOCK TIME=          1.3 SECONDS, CPU UTILIZATION IS    99.69%

 -------------------------     ---------------------------------------
 ENERGY MATRIX CALCULATION     WRITTEN BY B.R.BROOKS,W.D.LAIDIG,P.SAXE
 -------------------------     ---------------------------------------

 COMPUTING THE HAMILTONIAN FOR THE         1 CSF-S...

           6 IS THE TOTAL NUMBER OF GENERATED LOOPS
           6 WERE CREATED BY THE LOOP-DRIVEN ALGORITHM
           0 WERE CREATED IMPLICITLY

           6 IS THE TOTAL NUMBER OF PROCESSED LOOPS
           6     DIAGONAL LOOPS ARE STORED ON WORK15 IN     1 BUFFERS OF  10000 ELEMENTS.
           0 OFF DIAGONAL LOOPS ARE STORED ON WORK16 IN     1 BUFFERS OF  10000 ELEMENTS.
 ...... END OF ENERGY MATRIX CALCULATION ...... 
 STEP CPU TIME =     0.00 TOTAL CPU TIME =          1.3 (      0.0 MIN)
 TOTAL WALL CLOCK TIME=          1.3 SECONDS, CPU UTILIZATION IS    99.70%

          -----------------------------------------
          DAVIDSON METHOD CI-MATRIX DIAGONALIZATION
                   WRITTEN BY STEVE ELBERT
          -----------------------------------------
 NUMBER OF STATES REQUESTED =     1
 MAX. NUMB. OF EXPAN. VEC   =    30
 MAX. NUMB. IMPROVED STATES =     1
 MAX. NUMB. OF ITERATIONS   =    50
 CONVERGENCE CRITERION      =    1.0E-05

 CHOOSING TO SOLVE SECULAR EQUATION IN MEMORY
 NUMBER OF WORDS AVAILABLE =    2185665
 NUMBER OF WORDS USED      =      31014
 ENERGY MATRIX BUFFER SIZE =      10000
 SOLUTION FOUND WITH DIRECT METHOD

 STATE #    1  ENERGY =    -230.700982342

      CSF      COEF    OCCUPANCY (IGNORING CORE)
      ---      ----    --------- --------- -----
        1    1.000000  222
 ...... END OF CI-MATRIX DIAGONALIZATION ......
 STEP CPU TIME =     0.00 TOTAL CPU TIME =          1.3 (      0.0 MIN)
 TOTAL WALL CLOCK TIME=          1.3 SECONDS, CPU UTILIZATION IS    99.70%

          -------------------------------------
          2-PARTICLE DENSITY MATRIX CALCULATION
          -------------------------------------
 2 BODY DENSITY IS AN AVERAGE OF  1 STATE(S).
   STATE    WEIGHT          ENERGY
     1    1.000000     -230.7009823419
            6 -DM2- LOOPS WERE GENERATED
            6 WERE CREATED BY THE LOOP-DRIVEN ALGORITHM
            0 WERE CREATED IMPLICITLY
          1 RECORDS OF LENGTH 50000 WRITTEN TO FILE 15
 ...... END OF 2-PARTICLE DENSITY MATRIX CALCULATION ......
 STEP CPU TIME =     0.00 TOTAL CPU TIME =          1.3 (      0.0 MIN)
 TOTAL WALL CLOCK TIME=          1.3 SECONDS, CPU UTILIZATION IS    99.68%

          ----------------------------------
          2-PARTICLE DENSITY MATRIX LABELING
          ----------------------------------
      96637 WORDS NEEDED TO LABEL DM2 MATRIX
          1 RECORDS OF LENGTH 50000  READ FROM FILE 15
          1 RECORDS OF LENGTH 15000 WRITTEN TO FILE 16
 ...... END OF 2-PARTICLE DENSITY MATRIX LABELING ......
 STEP CPU TIME =     0.00 TOTAL CPU TIME =          1.3 (      0.0 MIN)
 TOTAL WALL CLOCK TIME=          1.3 SECONDS, CPU UTILIZATION IS    99.67%

          --------------
          -DM2- ORDERING
          --------------
      30028 WORDS NEEDED (   2185665 AVAILABLE) TO ORDER DM2 IN MEMORY
 CHOOSING IN MEMORY ORDERING...
                               1 RECORDS OF LENGTH 15000  READ FROM FILE 16
          9 DM2 VALUES IN      1 RECORDS OF LENGTH 15000 WRITTEN TO FILE 15
 ...... END OF -DM2- ORDERING ...... 
 STEP CPU TIME =     0.00 TOTAL CPU TIME =          1.3 (      0.0 MIN)
 TOTAL WALL CLOCK TIME=          1.3 SECONDS, CPU UTILIZATION IS    99.67%

          --------------------------------------
          APPROXIMATE SECOND-ORDER MCSCF PROGRAM
          --------------------------------------
          PROGRAM WRITTEN BY G.CHABAN, A.MARQUEZ, AND M.DUPUIS

  NUMBER OF WORDS NEEDED     =     123987
  NUMBER AVAILABLE           =    2185665

 ----- GAMMA(IJKL)*(PQ|KL) PRODUCTS ----- CPU TIME =      0.001
 ----- ORBITAL SYMMETRY             ----- CPU TIME =      0.000
 ----- FOCK OPERATORS CONSTRUCTION  ----- CPU TIME =      0.111
 ----- WARNING : CORE-ACTIVE GAP    =    0.01289
     MICIT =   1 ASYMM =    0.031167 ROTMAX =    0.008151
 ----- EFFECTIVE FOCK + ROTATE ORBS ----- CPU TIME =      0.007
     MICIT =   2 ASYMM =    0.015573 ROTMAX =    0.001122
     MICIT =   3 ASYMM =    0.013531 ROTMAX =    0.001265
     MICIT =   4 ASYMM =    0.011299 ROTMAX =    0.001069
     MICIT =   5 ASYMM =    0.009419 ROTMAX =    0.000893
 ..... DONE WITH CASSCF ORBITAL UPDATE .....
 STEP CPU TIME =     0.15 TOTAL CPU TIME =          1.5 (      0.0 MIN)
 TOTAL WALL CLOCK TIME=          1.5 SECONDS, CPU UTILIZATION IS    99.70%

 ITER     TOTAL ENERGY      DEL(E)  LAGRANGIAN ASYMMETRY   SQCDF  MICIT   DAMP
   1     -230.700982342 -0.700982342  0.031167   73   20 8.151E-03  5   0.0000
       ----------START APPROXIMATE SECOND ORDER MCSCF----------
   2     -230.702215314 -0.001232972  0.005158   72   21 3.000E-05  1   0.0000
   3     -230.702312505 -0.000097191  0.002186   72   21 7.547E-06  1   0.0000
   4     -230.702327100 -0.000014595  0.000425  101   20 1.713E-07  1   0.0000
   5     -230.702327844 -0.000000744  0.000212   47   15 4.359E-08  1   0.0000
   6     -230.702327980 -0.000000136  0.000061  101   20 5.728E-09  1   0.0000
   7     -230.702327997 -0.000000017  0.000025   99   19 8.218E-10  1   0.0000
   8     -230.702327999 -0.000000003  0.000007   47   15 8.763E-11  1   0.0000

          --------------------
          LAGRANGIAN CONVERGED
          --------------------

 FINAL MCSCF ENERGY IS     -230.7023279994 AFTER   8 ITERATIONS

 -MCCI- BASED ON OPTIMIZED ORBITALS
 ----------------------------------

 PLEASE NOTE: IF THE ACTIVE ORBITALS ARE CANONICALIZED BELOW,
 THE FOLLOWING CI EXPANSION COEFFICIENTS AND THE DENSITY DO NOT
 CORRESPOND TO THE PRINTED ORBITALS.  THE PRINTED EXPANSIONS MATCH
 THE ORBITALS USED DURING THE LAST ITERATION.  IF YOU WISH TO SEE
 CI EXPANSIONS BASED ON THE CANONICAL (OR NATURAL) ORBITALS, YOU
 MUST RUN A CI CALCULATION WITH THAT ORBITAL CHOICE READ IN $VEC.

 STATE #    1  ENERGY =    -230.702327999

      CSF      COEF    OCCUPANCY (IGNORING CORE)
      ---      ----    --------- --------- -----
        1    1.000000  222

 DENSITY MATRIX OVER ACTIVE MO-S

             1           2           3

    1    2.0000000
    2    0.0000000   2.0000000
    3    0.0000000   0.0000000   2.0000000

 * * * WARNING * * *
 YOUR NATURAL ORBITALS HAVE   3 DOUBLY OCCUPIED ACTIVE ORBITALS.
 AT THE VERY LEAST, THIS IS A WASTE OF COMPUTER TIME,
 BUT IT MAY REVEAL A FLAW IN YOUR MCSCF COMPUTATION:
   CHECK YOUR FORMULATION OF THE ACTIVE SPACE,
   AS WELL AS MECHANICAL THINGS LIKE STARTING ORBITALS.

 FORMING THE "STANDARD FOCK OPERATOR" USING INTEGRALS FROM DISK...
    18 FILLED,    3 ACTIVE, AND   81 VIRTUAL ORBITALS  WILL BE CANONICALIZED

          ----------------------
          MCSCF NATURAL ORBITALS
          ----------------------

                      1          2          3          4          5
                  -11.2334   -11.2328   -11.2328   -11.2316   -11.2316
                     A          A          A          A          A   
    1  C  1  S    0.405735  -0.054897   0.572264  -0.054123   0.572243
    2  C  1  S    0.011043  -0.001526   0.015907  -0.001515   0.016021
    3  C  1  X   -0.000019   0.000115   0.000054  -0.000115   0.000091
    4  C  1  Y   -0.000032  -0.000076   0.000067   0.000045   0.000180
    5  C  1  Z   -0.000000   0.000000  -0.000000  -0.000000   0.000000
    6  C  1  S   -0.002187   0.000474  -0.004939   0.000916  -0.009669
    7  C  1  X    0.000162  -0.001047  -0.000217   0.001130  -0.000726
    8  C  1  Y    0.000280   0.000630  -0.000141  -0.000471  -0.001487
    9  C  1  Z   -0.000000   0.000000  -0.000000  -0.000000   0.000000
   10  C  1 XX   -0.000936   0.000137  -0.001196  -0.000039  -0.000695
   11  C  1 YY   -0.000912   0.000096  -0.001227   0.000184  -0.000830
   12  C  1 ZZ   -0.001083   0.000135  -0.001402   0.000124  -0.001316
   13  C  1 XY    0.000024   0.000017  -0.000026  -0.000055  -0.000161
   14  C  1 XZ   -0.000000   0.000000  -0.000000  -0.000000   0.000000
   15  C  1 YZ   -0.000000   0.000000  -0.000000  -0.000000   0.000000
   16  C  2  S    0.406144  -0.522726   0.238875   0.522960  -0.238951
   17  C  2  S    0.011054  -0.014531   0.006640   0.014642  -0.006690
   18  C  2  X    0.000019   0.000089   0.000091  -0.000048   0.000139
   19  C  2  Y   -0.000032  -0.000039   0.000094   0.000185  -0.000017
   20  C  2  Z   -0.000000   0.000000  -0.000000  -0.000000   0.000000
   21  C  2  S   -0.002190   0.004514  -0.002064  -0.008844   0.004035
   22  C  2  X   -0.000161  -0.000547  -0.000919   0.000317  -0.001304
   23  C  2  Y    0.000281  -0.000072  -0.000643  -0.001563   0.000041
   24  C  2  Z   -0.000000   0.000000  -0.000000  -0.000000   0.000000
   25  C  2 XX   -0.000936   0.001085  -0.000520  -0.000669   0.000191
   26  C  2 YY   -0.000912   0.001128  -0.000491  -0.000723   0.000446
   27  C  2 ZZ   -0.001084   0.001281  -0.000585  -0.001203   0.000550
   28  C  2 XY   -0.000024  -0.000019   0.000025   0.000170  -0.000001
   29  C  2 XZ   -0.000000   0.000000  -0.000000  -0.000000   0.000000
   30  C  2 YZ   -0.000000   0.000000  -0.000000  -0.000000   0.000000
   31  C  3  S    0.406649  -0.468058  -0.333361  -0.468610  -0.333297
   32  C  3  S    0.011068  -0.013011  -0.009267  -0.013120  -0.009332
   33  C  3  X    0.000037   0.000070   0.000050   0.000165   0.000117
   34  C  3  Y   -0.000000  -0.000080   0.000113   0.000071  -0.000100
   35  C  3  Z   -0.000000   0.000000  -0.000000  -0.000000   0.000000
   36  C  3  S   -0.002195   0.004044   0.002881   0.007928   0.005644
   37  C  3  X   -0.000323  -0.000190  -0.000136  -0.001356  -0.000968
   38  C  3  Y    0.000001   0.000713  -0.001000  -0.000706   0.000994
   39  C  3  Z   -0.000000   0.000000  -0.000000  -0.000000   0.000000
   40  C  3 XX   -0.000901   0.001013   0.000722   0.000750   0.000534
   41  C  3 YY   -0.000949   0.000968   0.000689   0.000497   0.000353
   42  C  3 ZZ   -0.001085   0.001147   0.000817   0.001078   0.000766
   43  C  3 XY    0.000000   0.000017  -0.000024  -0.000081   0.000114
   44  C  3 XZ   -0.000000   0.000000  -0.000000  -0.000000   0.000000
   45  C  3 YZ   -0.000000   0.000000  -0.000000  -0.000000   0.000000
   46  C  4  S    0.406664   0.055108  -0.571771  -0.053917   0.572735
   47  C  4  S    0.011069   0.001532  -0.015894  -0.001510   0.016036
   48  C  4  X    0.000019   0.000115   0.000054   0.000115  -0.000091
   49  C  4  Y    0.000032  -0.000076   0.000068  -0.000045  -0.000180
   50  C  4  Z   -0.000000   0.000000  -0.000000  -0.000000   0.000000
   51  C  4  S   -0.002194  -0.000476   0.004939   0.000911  -0.009693
   52  C  4  X   -0.000162  -0.001048  -0.000218  -0.001129   0.000731
   53  C  4  Y   -0.000281   0.000631  -0.000142   0.000472   0.001495
   54  C  4  Z   -0.000000   0.000000  -0.000000  -0.000000   0.000000
   55  C  4 XX   -0.000938  -0.000137   0.001194  -0.000040  -0.000695
   56  C  4 YY   -0.000914  -0.000096   0.001226   0.000183  -0.000830
   57  C  4 ZZ   -0.001085  -0.000135   0.001401   0.000124  -0.001317
   58  C  4 XY    0.000024  -0.000017   0.000026  -0.000055  -0.000161
   59  C  4 XZ   -0.000000   0.000000  -0.000000  -0.000000   0.000000
   60  C  4 YZ   -0.000000   0.000000  -0.000000  -0.000000   0.000000
   61  C  5  S    0.406462   0.523143  -0.237974   0.522528  -0.239865
   62  C  5  S    0.011063   0.014542  -0.006615   0.014630  -0.006716
   63  C  5  X   -0.000019   0.000089   0.000091   0.000048  -0.000139
   64  C  5  Y    0.000032  -0.000039   0.000094  -0.000185   0.000017
   65  C  5  Z   -0.000000   0.000000  -0.000000  -0.000000   0.000000
   66  C  5  S   -0.002194  -0.004520   0.002057  -0.008837   0.004063
   67  C  5  X    0.000162  -0.000547  -0.000919  -0.000315   0.001309
   68  C  5  Y   -0.000279  -0.000071  -0.000643   0.001562  -0.000049
   69  C  5  Z   -0.000000   0.000000  -0.000000  -0.000000   0.000000
   70  C  5 XX   -0.000937  -0.001085   0.000518  -0.000669   0.000192
   71  C  5 YY   -0.000913  -0.001129   0.000489  -0.000723   0.000447
   72  C  5 ZZ   -0.001085  -0.001282   0.000583  -0.001202   0.000551
   73  C  5 XY   -0.000024   0.000019  -0.000025   0.000170  -0.000001
   74  C  5 XZ   -0.000000   0.000000  -0.000000  -0.000000   0.000000
   75  C  5 YZ   -0.000000   0.000000  -0.000000  -0.000000   0.000000
   76  C  6  S    0.405917   0.467737   0.334062  -0.468914  -0.332607
   77  C  6  S    0.011048   0.013002   0.009286  -0.013128  -0.009312
   78  C  6  X   -0.000037   0.000070   0.000050  -0.000165  -0.000117
   79  C  6  Y   -0.000000  -0.000080   0.000113  -0.000071   0.000100
   80  C  6  Z   -0.000000   0.000000  -0.000000  -0.000000   0.000000
   81  C  6  S   -0.002188  -0.004037  -0.002885   0.007927   0.005618
   82  C  6  X    0.000324  -0.000189  -0.000135   0.001355   0.000958
   83  C  6  Y    0.000001   0.000713  -0.001000   0.000706  -0.000994
   84  C  6  Z   -0.000000   0.000000  -0.000000  -0.000000   0.000000
   85  C  6 XX   -0.000900  -0.001013  -0.000723   0.000751   0.000533
   86  C  6 YY   -0.000948  -0.000968  -0.000691   0.000498   0.000353
   87  C  6 ZZ   -0.001084  -0.001146  -0.000819   0.001078   0.000765
   88  C  6 XY   -0.000000  -0.000017   0.000024  -0.000081   0.000114
   89  C  6 XZ   -0.000000   0.000000  -0.000000  -0.000000   0.000000
   90  C  6 YZ   -0.000000   0.000000  -0.000000  -0.000000   0.000000
   91  H  7  S   -0.000107   0.000120  -0.000055  -0.000076   0.000035
   92  H  7  S    0.000830  -0.000832   0.000381   0.000769  -0.000352
   93  H  8  S   -0.000107   0.000107   0.000076   0.000068   0.000048
   94  H  8  S    0.000830  -0.000745  -0.000531  -0.000689  -0.000489
   95  H  9  S   -0.000107  -0.000013   0.000131   0.000008  -0.000083
   96  H  9  S    0.000831   0.000088  -0.000911  -0.000079   0.000842
   97  H 10  S   -0.000107  -0.000107  -0.000077   0.000068   0.000048
   98  H 10  S    0.000829   0.000745   0.000532  -0.000690  -0.000490
   99  H 11  S   -0.000107  -0.000120   0.000054  -0.000076   0.000035
  100  H 11  S    0.000830   0.000833  -0.000379   0.000769  -0.000352
  101  H 12  S   -0.000107   0.000013  -0.000131   0.000008  -0.000083
  102  H 12  S    0.000829  -0.000087   0.000912  -0.000080   0.000842

                      6          7          8          9         10
                  -11.2310    -1.1433    -1.0082    -1.0081    -0.8172
                     A          A          A          A          A   
    1  C  1  S    0.407272  -0.092355  -0.013184   0.127545  -0.099013
    2  C  1  S    0.011670   0.175211   0.025420  -0.245913   0.197687
    3  C  1  X    0.000107   0.029772   0.100351  -0.003378  -0.005329
    4  C  1  Y    0.000186   0.051567  -0.054688  -0.029473  -0.070330
    5  C  1  Z    0.000000  -0.000000   0.000000   0.000000  -0.000000
    6  C  1  S   -0.015180   0.111716   0.019755  -0.191104   0.166284
    7  C  1  X   -0.002736   0.003375   0.014379   0.003811  -0.021852
    8  C  1  Y   -0.004740   0.005845  -0.008851   0.003111  -0.053380
    9  C  1  Z    0.000000  -0.000000   0.000000   0.000000  -0.000000
   10  C  1 XX   -0.000195   0.007645   0.009803  -0.008467   0.004636
   11  C  1 YY   -0.000333   0.006238  -0.008006  -0.008916   0.006811
   12  C  1 ZZ   -0.000784  -0.008350  -0.001048   0.010135  -0.007047
   13  C  1 XY   -0.000138  -0.001407   0.005747   0.001986   0.005837
   14  C  1 XZ    0.000000  -0.000000   0.000000   0.000000  -0.000000
   15  C  1 YZ    0.000000  -0.000000   0.000000   0.000000  -0.000000
   16  C  2  S   -0.406867  -0.092355  -0.117050   0.052353   0.036627
   17  C  2  S   -0.011659   0.175210   0.225679  -0.100940  -0.073128
   18  C  2  X    0.000107  -0.029773   0.028126   0.096386  -0.177528
   19  C  2  Y   -0.000186   0.051567   0.045080   0.042750  -0.075344
   20  C  2  Z    0.000000  -0.000000   0.000000   0.000000  -0.000000
   21  C  2  S    0.015174   0.111713   0.175379  -0.078442  -0.061511
   22  C  2  X   -0.002737  -0.003374   0.008111   0.012470  -0.052706
   23  C  2  Y    0.004739   0.005843  -0.000192   0.009380  -0.006017
   24  C  2  Z    0.000000  -0.000000   0.000000   0.000000  -0.000000
   25  C  2 XX    0.000194   0.007645   0.004982  -0.011957   0.007398
   26  C  2 YY    0.000332   0.006238   0.010971   0.004822  -0.011632
   27  C  2 ZZ    0.000783  -0.008350  -0.009301   0.004160   0.002607
   28  C  2 XY   -0.000138   0.001407   0.003681   0.004839  -0.003916
   29  C  2 XZ    0.000000  -0.000000   0.000000   0.000000  -0.000000
   30  C  2 YZ    0.000000  -0.000000   0.000000   0.000000  -0.000000
   31  C  3  S    0.406362  -0.092354  -0.103865  -0.075191   0.062386
   32  C  3  S    0.011645   0.175208   0.200258   0.144971  -0.124559
   33  C  3  X   -0.000214  -0.059544  -0.022163  -0.016045  -0.040055
   34  C  3  Y   -0.000000  -0.000002  -0.067354   0.093037   0.160865
   35  C  3  Z    0.000000  -0.000000   0.000000   0.000000  -0.000000
   36  C  3  S   -0.015165   0.111713   0.155624   0.112660  -0.104772
   37  C  3  X    0.005471  -0.006749   0.003746   0.002712  -0.036012
   38  C  3  Y    0.000001  -0.000000  -0.009950   0.013745   0.040888
   39  C  3  Z    0.000000  -0.000000   0.000000   0.000000  -0.000000
   40  C  3 XX   -0.000400   0.005535   0.005956   0.004312  -0.006707
   41  C  3 YY   -0.000125   0.008349   0.008200   0.005936  -0.000505
   42  C  3 ZZ   -0.000781  -0.008350  -0.008254  -0.005975   0.004440
   43  C  3 XY    0.000000   0.000000   0.006944  -0.009591  -0.009642
   44  C  3 XZ    0.000000  -0.000000   0.000000   0.000000  -0.000000
   45  C  3 YZ    0.000000  -0.000000   0.000000   0.000000  -0.000000
   46  C  4  S   -0.406344  -0.092353   0.013185  -0.127546  -0.099013
   47  C  4  S   -0.011644   0.175207  -0.025421   0.245915   0.197687
   48  C  4  X    0.000107  -0.029772   0.100349  -0.003381   0.005329
   49  C  4  Y    0.000185  -0.051566  -0.054687  -0.029473   0.070330
   50  C  4  Z    0.000000  -0.000000   0.000000   0.000000  -0.000000
   51  C  4  S    0.015164   0.111712  -0.019755   0.191106   0.166285
   52  C  4  X   -0.002735  -0.003374   0.014379   0.003810   0.021852
   53  C  4  Y   -0.004737  -0.005845  -0.008851   0.003111   0.053380
   54  C  4  Z    0.000000  -0.000000   0.000000   0.000000  -0.000000
   55  C  4 XX    0.000194   0.007645  -0.009803   0.008467   0.004636
   56  C  4 YY    0.000331   0.006238   0.008006   0.008916   0.006811
   57  C  4 ZZ    0.000781  -0.008350   0.001048  -0.010135  -0.007047
   58  C  4 XY    0.000138  -0.001407  -0.005747  -0.001986   0.005837
   59  C  4 XZ    0.000000  -0.000000   0.000000   0.000000  -0.000000
   60  C  4 YZ    0.000000  -0.000000   0.000000   0.000000  -0.000000
   61  C  5  S    0.406559  -0.092355   0.117049  -0.052355   0.036627
   62  C  5  S    0.011650   0.175209  -0.225676   0.100944  -0.073129
   63  C  5  X    0.000107   0.029772   0.028126   0.096387   0.177529
   64  C  5  Y   -0.000186  -0.051568   0.045080   0.042750   0.075345
   65  C  5  Z    0.000000  -0.000000   0.000000   0.000000  -0.000000
   66  C  5  S   -0.015169   0.111714  -0.175377   0.078444  -0.061512
   67  C  5  X   -0.002735   0.003374   0.008111   0.012470   0.052707
   68  C  5  Y    0.004739  -0.005844  -0.000192   0.009381   0.006017
   69  C  5  Z    0.000000  -0.000000   0.000000   0.000000  -0.000000
   70  C  5 XX   -0.000194   0.007645  -0.004982   0.011957   0.007398
   71  C  5 YY   -0.000331   0.006238  -0.010971  -0.004822  -0.011632
   72  C  5 ZZ   -0.000782  -0.008350   0.009301  -0.004160   0.002607
   73  C  5 XY    0.000138   0.001407  -0.003681  -0.004839  -0.003916
   74  C  5 XZ    0.000000  -0.000000   0.000000   0.000000  -0.000000
   75  C  5 YZ    0.000000  -0.000000   0.000000   0.000000  -0.000000
   76  C  6  S   -0.407102  -0.092355   0.103865   0.075190   0.062386
   77  C  6  S   -0.011665   0.175211  -0.200258  -0.144971  -0.124558
   78  C  6  X   -0.000214   0.059545  -0.022163  -0.016045   0.040055
   79  C  6  Y    0.000000   0.000001  -0.067353   0.093038  -0.160867
   80  C  6  Z    0.000000  -0.000000   0.000000   0.000000  -0.000000
   81  C  6  S    0.015177   0.111714  -0.155624  -0.112659  -0.104772
   82  C  6  X    0.005473   0.006748   0.003746   0.002713   0.036012
   83  C  6  Y   -0.000001   0.000000  -0.009950   0.013745  -0.040888
   84  C  6  Z    0.000000  -0.000000   0.000000   0.000000  -0.000000
   85  C  6 XX    0.000401   0.005535  -0.005956  -0.004312  -0.006707
   86  C  6 YY    0.000126   0.008349  -0.008200  -0.005936  -0.000506
   87  C  6 ZZ    0.000783  -0.008350   0.008254   0.005975   0.004440
   88  C  6 XY    0.000000  -0.000000  -0.006944   0.009592  -0.009642
   89  C  6 XZ    0.000000  -0.000000   0.000000   0.000000  -0.000000
   90  C  6 YZ    0.000000  -0.000000   0.000000   0.000000  -0.000000
   91  H  7  S    0.000145   0.035030   0.069442  -0.031060  -0.041146
   92  H  7  S    0.000201   0.003686   0.013611  -0.006088  -0.012820
   93  H  8  S   -0.000145   0.035029   0.061619   0.044608  -0.070085
   94  H  8  S   -0.000202   0.003687   0.012078   0.008744  -0.021837
   95  H  9  S    0.000145   0.035030  -0.007822   0.075669   0.111234
   96  H  9  S    0.000202   0.003687  -0.001533   0.014833   0.034659
   97  H 10  S    0.000145   0.035030  -0.061619  -0.044608  -0.070085
   98  H 10  S    0.000201   0.003687  -0.012078  -0.008744  -0.021837
   99  H 11  S   -0.000145   0.035029  -0.069440   0.031060  -0.041147
  100  H 11  S   -0.000202   0.003687  -0.013611   0.006088  -0.012821
  101  H 12  S   -0.000145   0.035031   0.007822  -0.075669   0.111234
  102  H 12  S   -0.000201   0.003687   0.001533  -0.014833   0.034659

                     11         12         13         14         15
                   -0.8172    -0.7024    -0.6381    -0.6113    -0.5816
                     A          A          A          A          A   
    1  C  1  S    0.014872   0.007694  -0.056058   0.000000  -0.001715
    2  C  1  S   -0.029693  -0.013439   0.115406  -0.000001   0.003823
    3  C  1  X    0.180917   0.096872  -0.065732   0.235668   0.086400
    4  C  1  Y   -0.093425   0.167791  -0.113860  -0.136062  -0.021402
    5  C  1  Z   -0.000000   0.000000  -0.000000  -0.000000   0.000000
    6  C  1  S   -0.024976  -0.033708   0.058109  -0.000000   0.002515
    7  C  1  X    0.049064   0.035687  -0.064929   0.083085   0.030877
    8  C  1  Y   -0.018414   0.061813  -0.112465  -0.047968  -0.005247
    9  C  1  Z   -0.000000   0.000000  -0.000000  -0.000000   0.000000
   10  C  1 XX    0.008653  -0.001238  -0.004768   0.007302   0.011165
   11  C  1 YY   -0.010372  -0.003974   0.010981  -0.007301  -0.011814
   12  C  1 ZZ    0.001059   0.000586  -0.003466   0.000000  -0.000006
   13  C  1 XY    0.005356  -0.002736   0.015749   0.004868   0.006257
   14  C  1 XZ   -0.000000   0.000000  -0.000000  -0.000000   0.000000
   15  C  1 YZ   -0.000000   0.000000  -0.000000  -0.000000   0.000000
   16  C  2  S   -0.093184   0.007696   0.056059   0.000000  -0.018465
   17  C  2  S    0.186048  -0.013443  -0.115407  -0.000000   0.041153
   18  C  2  X   -0.035245  -0.096876  -0.065733  -0.235666  -0.101183
   19  C  2  Y   -0.089433   0.167791   0.113847  -0.136065   0.248276
   20  C  2  Z   -0.000000   0.000000  -0.000000  -0.000000   0.000000
   21  C  2  S    0.156495  -0.033713  -0.058111  -0.000001   0.027064
   22  C  2  X    0.010333  -0.035689  -0.064931  -0.083084  -0.047805
   23  C  2  Y   -0.056146   0.061815   0.112461  -0.047971   0.107871
   24  C  2  Z   -0.000000   0.000000  -0.000000  -0.000000   0.000000
   25  C  2 XX    0.006453  -0.001238   0.004768   0.007302  -0.002508
   26  C  2 YY    0.004320  -0.003974  -0.010981  -0.007302  -0.004477
   27  C  2 ZZ   -0.006633   0.000586   0.003466   0.000000  -0.000062
   28  C  2 XY   -0.006887   0.002736   0.015749  -0.004868   0.014450
   29  C  2 XZ   -0.000000   0.000000  -0.000000  -0.000000   0.000000
   30  C  2 YZ   -0.000000   0.000000  -0.000000  -0.000000   0.000000
   31  C  3  S    0.078312   0.007695  -0.056058   0.000000  -0.016751
   32  C  3  S   -0.156356  -0.013441   0.115406  -0.000001   0.037333
   33  C  3  X   -0.050280  -0.193746   0.131467  -0.000001  -0.240932
   34  C  3  Y   -0.128152  -0.000000   0.000005   0.272126  -0.049010
   35  C  3  Z   -0.000000   0.000000  -0.000000  -0.000000   0.000000
   36  C  3  S   -0.131521  -0.033710   0.058111   0.000001   0.024552
   37  C  3  X   -0.045205  -0.071376   0.129861  -0.000002  -0.106422
   38  C  3  Y   -0.032574   0.000000   0.000002   0.095937  -0.016827
   39  C  3  Z   -0.000000   0.000000  -0.000000  -0.000000   0.000000
   40  C  3 XX   -0.008420  -0.005341   0.018856   0.000000  -0.013445
   41  C  3 YY   -0.000634   0.000130  -0.012642  -0.000000   0.007109
   42  C  3 ZZ    0.005574   0.000586  -0.003466   0.000000  -0.000057
   43  C  3 XY    0.007681  -0.000000   0.000000  -0.009736   0.008376
   44  C  3 XZ   -0.000000   0.000000  -0.000000  -0.000000   0.000000
   45  C  3 YZ   -0.000000   0.000000  -0.000000  -0.000000   0.000000
   46  C  4  S    0.014872   0.007696   0.056058  -0.000001   0.001715
   47  C  4  S   -0.029693  -0.013442  -0.115406   0.000001  -0.003823
   48  C  4  X   -0.180916  -0.096872  -0.065733   0.235668   0.086397
   49  C  4  Y    0.093424  -0.167791  -0.113855  -0.136060  -0.021396
   50  C  4  Z   -0.000000   0.000000  -0.000000  -0.000000   0.000000
   51  C  4  S   -0.024976  -0.033711  -0.058110   0.000002  -0.002513
   52  C  4  X   -0.049064  -0.035688  -0.064930   0.083085   0.030876
   53  C  4  Y    0.018413  -0.061814  -0.112463  -0.047968  -0.005245
   54  C  4  Z   -0.000000   0.000000  -0.000000  -0.000000   0.000000
   55  C  4 XX    0.008653  -0.001237   0.004768  -0.007302  -0.011165
   56  C  4 YY   -0.010372  -0.003974  -0.010982   0.007302   0.011814
   57  C  4 ZZ    0.001059   0.000586   0.003466  -0.000000   0.000006
   58  C  4 XY    0.005356  -0.002736  -0.015749  -0.004868  -0.006257
   59  C  4 XZ   -0.000000   0.000000  -0.000000  -0.000000   0.000000
   60  C  4 YZ   -0.000000   0.000000  -0.000000  -0.000000   0.000000
   61  C  5  S   -0.093184   0.007695  -0.056059   0.000001   0.018465
   62  C  5  S    0.186048  -0.013441   0.115408  -0.000001  -0.041154
   63  C  5  X    0.035243   0.096875  -0.065732  -0.235664  -0.101181
   64  C  5  Y    0.089430  -0.167787   0.113851  -0.136069   0.248270
   65  C  5  Z   -0.000000   0.000000  -0.000000  -0.000000   0.000000
   66  C  5  S    0.156495  -0.033712   0.058112  -0.000001  -0.027065
   67  C  5  X   -0.010334   0.035689  -0.064931  -0.083082  -0.047805
   68  C  5  Y    0.056145  -0.061812   0.112462  -0.047972   0.107869
   69  C  5  Z   -0.000000   0.000000  -0.000000  -0.000000   0.000000
   70  C  5 XX    0.006453  -0.001238  -0.004767  -0.007302   0.002508
   71  C  5 YY    0.004320  -0.003973   0.010981   0.007302   0.004476
   72  C  5 ZZ   -0.006632   0.000586  -0.003466  -0.000000   0.000062
   73  C  5 XY   -0.006886   0.002736  -0.015749   0.004868  -0.014450
   74  C  5 XZ   -0.000000   0.000000  -0.000000  -0.000000   0.000000
   75  C  5 YZ   -0.000000   0.000000  -0.000000  -0.000000   0.000000
   76  C  6  S    0.078311   0.007696   0.056059  -0.000001   0.016750
   77  C  6  S   -0.156353  -0.013443  -0.115407   0.000001  -0.037332
   78  C  6  X    0.050279   0.193749   0.131462  -0.000002  -0.240934
   79  C  6  Y    0.128154  -0.000001   0.000005   0.272126  -0.049004
   80  C  6  Z   -0.000000   0.000000  -0.000000  -0.000000   0.000000
   81  C  6  S   -0.131517  -0.033712  -0.058111   0.000001  -0.024552
   82  C  6  X    0.045204   0.071378   0.129860  -0.000002  -0.106423
   83  C  6  Y    0.032574  -0.000000   0.000002   0.095937  -0.016825
   84  C  6  Z   -0.000000   0.000000  -0.000000  -0.000000   0.000000
   85  C  6 XX   -0.008420  -0.005342  -0.018855  -0.000000   0.013446
   86  C  6 YY   -0.000634   0.000130   0.012642   0.000000  -0.007110
   87  C  6 ZZ    0.005574   0.000586   0.003466  -0.000000   0.000057
   88  C  6 XY    0.007681  -0.000000  -0.000000   0.009736  -0.008376
   89  C  6 XZ   -0.000000   0.000000  -0.000000  -0.000000   0.000000
   90  C  6 YZ   -0.000000   0.000000  -0.000000  -0.000000   0.000000
   91  H  7  S    0.104685  -0.111035  -0.136172   0.000001  -0.148962
   92  H  7  S    0.032619  -0.066269  -0.066637   0.000001  -0.115272
   93  H  8  S   -0.087978  -0.111032   0.136175   0.000001  -0.135123
   94  H  8  S   -0.027413  -0.066268   0.066640   0.000001  -0.104564
   95  H  9  S   -0.016708  -0.111033  -0.136176   0.000001   0.013835
   96  H  9  S   -0.005206  -0.066269  -0.066639   0.000001   0.010706
   97  H 10  S   -0.087976  -0.111035  -0.136173   0.000001   0.135125
   98  H 10  S   -0.027412  -0.066269  -0.066637   0.000000   0.104565
   99  H 11  S    0.104683  -0.111031   0.136174  -0.000004   0.148958
  100  H 11  S    0.032618  -0.066268   0.066639  -0.000003   0.115269
  101  H 12  S   -0.016707  -0.111032   0.136178   0.000000  -0.013832
  102  H 12  S   -0.005206  -0.066268   0.066641   0.000000  -0.010704

                     16         17         18         19         20
                   -0.5816    -0.4885    -0.4885     2.0000     2.0000
                     A          A          A          A          A   
    1  C  1  S   -0.020333   0.004642  -0.000167        NaN        NaN
    2  C  1  S    0.045317  -0.015267   0.000548        NaN        NaN
    3  C  1  X    0.139974  -0.119215  -0.217609        NaN        NaN
    4  C  1  Y    0.256872  -0.188110   0.134859        NaN        NaN
    5  C  1  Z    0.000000  -0.000000  -0.000000        NaN        NaN
    6  C  1  S    0.029804   0.005415  -0.000195        NaN        NaN
    7  C  1  X    0.062442  -0.068236  -0.094643        NaN        NaN
    8  C  1  Y    0.113107  -0.110147   0.060010        NaN        NaN
    9  C  1  Z    0.000000  -0.000000  -0.000000        NaN        NaN
   10  C  1 XX    0.001468  -0.007576  -0.011459        NaN        NaN
   11  C  1 YY   -0.009158   0.015916   0.011160        NaN        NaN
   12  C  1 ZZ   -0.000069  -0.000880   0.000032        NaN        NaN
   13  C  1 XY   -0.013091   0.022369  -0.008624        NaN        NaN
   14  C  1 XZ    0.000000  -0.000000  -0.000000        NaN        NaN
   15  C  1 YZ    0.000000  -0.000000  -0.000000        NaN        NaN
   16  C  2  S   -0.008680  -0.002176   0.004103        NaN        NaN
   17  C  2  S    0.019346   0.007158  -0.013495        NaN        NaN
   18  C  2  X   -0.129695   0.143727   0.202258        NaN        NaN
   19  C  2  Y    0.069299   0.203456  -0.110349        NaN        NaN
   20  C  2  Z    0.000000  -0.000000  -0.000000        NaN        NaN
   21  C  2  S    0.012726  -0.002542   0.004789        NaN        NaN
   22  C  2  X   -0.050671   0.055355   0.102709        NaN        NaN
   23  C  2  Y    0.034433   0.102078  -0.072891        NaN        NaN
   24  C  2  Z    0.000000  -0.000000  -0.000000        NaN        NaN
   25  C  2 XX    0.010978  -0.007002  -0.011819        NaN        NaN
   26  C  2 YY   -0.014262   0.003092   0.019191        NaN        NaN
   27  C  2 ZZ   -0.000029   0.000413  -0.000778        NaN        NaN
   28  C  2 XY   -0.001311   0.017525  -0.016359        NaN        NaN
   29  C  2 XZ    0.000000  -0.000000  -0.000000        NaN        NaN
   30  C  2 YZ    0.000000  -0.000000  -0.000000        NaN        NaN
   31  C  3  S    0.011651  -0.002466  -0.003937        NaN        NaN
   32  C  3  S   -0.025966   0.008109   0.012948        NaN        NaN
   33  C  3  X    0.167587  -0.118174  -0.188710        NaN        NaN
   34  C  3  Y   -0.070457  -0.217011   0.135900        NaN        NaN
   35  C  3  Z    0.000000  -0.000000  -0.000000        NaN        NaN
   36  C  3  S   -0.017081  -0.002877  -0.004592        NaN        NaN
   37  C  3  X    0.074028  -0.068779  -0.109833        NaN        NaN
   38  C  3  Y   -0.024190  -0.094958   0.059466        NaN        NaN
   39  C  3  Z    0.000000  -0.000000  -0.000000        NaN        NaN
   40  C  3 XX    0.009352  -0.014244  -0.022745        NaN        NaN
   41  C  3 YY   -0.004945   0.009815   0.015672        NaN        NaN
   42  C  3 ZZ    0.000039   0.000468   0.000747        NaN        NaN
   43  C  3 XY    0.012043   0.013248  -0.008297        NaN        NaN
   44  C  3 XZ    0.000000  -0.000000  -0.000000        NaN        NaN
   45  C  3 YZ    0.000000  -0.000000  -0.000000        NaN        NaN
   46  C  4  S    0.020333   0.004642  -0.000167        NaN        NaN
   47  C  4  S   -0.045317  -0.015266   0.000548        NaN        NaN
   48  C  4  X    0.139978   0.119210   0.217611        NaN        NaN
   49  C  4  Y    0.256876   0.188106  -0.134863        NaN        NaN
   50  C  4  Z    0.000000  -0.000000  -0.000000        NaN        NaN
   51  C  4  S   -0.029803   0.005416  -0.000193        NaN        NaN
   52  C  4  X    0.062443   0.068234   0.094643        NaN        NaN
   53  C  4  Y    0.113109   0.110144  -0.060013        NaN        NaN
   54  C  4  Z    0.000000  -0.000000  -0.000000        NaN        NaN
   55  C  4 XX   -0.001468  -0.007576  -0.011459        NaN        NaN
   56  C  4 YY    0.009158   0.015915   0.011160        NaN        NaN
   57  C  4 ZZ    0.000069  -0.000880   0.000032        NaN        NaN
   58  C  4 XY    0.013091   0.022369  -0.008625        NaN        NaN
   59  C  4 XZ    0.000000  -0.000000  -0.000000        NaN        NaN
   60  C  4 YZ    0.000000  -0.000000  -0.000000        NaN        NaN
   61  C  5  S    0.008680  -0.002177   0.004104        NaN        NaN
   62  C  5  S   -0.019346   0.007160  -0.013496        NaN        NaN
   63  C  5  X   -0.129700  -0.143722  -0.202261        NaN        NaN
   64  C  5  Y    0.069298  -0.203461   0.110352        NaN        NaN
   65  C  5  Z    0.000000  -0.000000  -0.000000        NaN        NaN
   66  C  5  S   -0.012725  -0.002539   0.004787        NaN        NaN
   67  C  5  X   -0.050673  -0.055352  -0.102712        NaN        NaN
   68  C  5  Y    0.034433  -0.102081   0.072894        NaN        NaN
   69  C  5  Z    0.000000  -0.000000  -0.000000        NaN        NaN
   70  C  5 XX   -0.010978  -0.007002  -0.011819        NaN        NaN
   71  C  5 YY    0.014262   0.003092   0.019191        NaN        NaN
   72  C  5 ZZ    0.000029   0.000413  -0.000778        NaN        NaN
   73  C  5 XY    0.001311   0.017525  -0.016360        NaN        NaN
   74  C  5 XZ    0.000000  -0.000000  -0.000000        NaN        NaN
   75  C  5 YZ    0.000000  -0.000000  -0.000000        NaN        NaN
   76  C  6  S   -0.011651  -0.002465  -0.003936        NaN        NaN
   77  C  6  S    0.025966   0.008108   0.012946        NaN        NaN
   78  C  6  X    0.167590   0.118175   0.188705        NaN        NaN
   79  C  6  Y   -0.070453   0.217012  -0.135898        NaN        NaN
   80  C  6  Z    0.000000  -0.000000  -0.000000        NaN        NaN
   81  C  6  S    0.017079  -0.002878  -0.004595        NaN        NaN
   82  C  6  X    0.074029   0.068780   0.109831        NaN        NaN
   83  C  6  Y   -0.024188   0.094958  -0.059465        NaN        NaN
   84  C  6  Z    0.000000  -0.000000  -0.000000        NaN        NaN
   85  C  6 XX   -0.009353  -0.014244  -0.022744        NaN        NaN
   86  C  6 YY    0.004945   0.009815   0.015672        NaN        NaN
   87  C  6 ZZ   -0.000039   0.000468   0.000747        NaN        NaN
   88  C  6 XY   -0.012043   0.013248  -0.008297        NaN        NaN
   89  C  6 XZ    0.000000  -0.000000  -0.000000        NaN        NaN
   90  C  6 YZ    0.000000  -0.000000  -0.000000        NaN        NaN
   91  H  7  S   -0.070028  -0.076355   0.143946        NaN        NaN
   92  H  7  S   -0.054190  -0.067508   0.127267        NaN        NaN
   93  H  8  S    0.093989  -0.086484  -0.138102        NaN        NaN
   94  H  8  S    0.072732  -0.076463  -0.122100        NaN        NaN
   95  H  9  S    0.164016   0.162839  -0.005848        NaN        NaN
   96  H  9  S    0.126923   0.143969  -0.005170        NaN        NaN
   97  H 10  S   -0.093991  -0.086485  -0.138099        NaN        NaN
   98  H 10  S   -0.072734  -0.076464  -0.122097        NaN        NaN
   99  H 11  S    0.070029  -0.076358   0.143950        NaN        NaN
  100  H 11  S    0.054191  -0.067511   0.127270        NaN        NaN
  101  H 12  S   -0.164012   0.162843  -0.005846        NaN        NaN
  102  H 12  S   -0.126920   0.143973  -0.005169        NaN        NaN

                     21
                    2.0000
                     A   
    1  C  1  S         NaN
    2  C  1  S         NaN
    3  C  1  X         NaN
    4  C  1  Y         NaN
    5  C  1  Z         NaN
    6  C  1  S         NaN
    7  C  1  X         NaN
    8  C  1  Y         NaN
    9  C  1  Z         NaN
   10  C  1 XX         NaN
   11  C  1 YY         NaN
   12  C  1 ZZ         NaN
   13  C  1 XY         NaN
   14  C  1 XZ         NaN
   15  C  1 YZ         NaN
   16  C  2  S         NaN
   17  C  2  S         NaN
   18  C  2  X         NaN
   19  C  2  Y         NaN
   20  C  2  Z         NaN
   21  C  2  S         NaN
   22  C  2  X         NaN
   23  C  2  Y         NaN
   24  C  2  Z         NaN
   25  C  2 XX         NaN
   26  C  2 YY         NaN
   27  C  2 ZZ         NaN
   28  C  2 XY         NaN
   29  C  2 XZ         NaN
   30  C  2 YZ         NaN
   31  C  3  S         NaN
   32  C  3  S         NaN
   33  C  3  X         NaN
   34  C  3  Y         NaN
   35  C  3  Z         NaN
   36  C  3  S         NaN
   37  C  3  X         NaN
   38  C  3  Y         NaN
   39  C  3  Z         NaN
   40  C  3 XX         NaN
   41  C  3 YY         NaN
   42  C  3 ZZ         NaN
   43  C  3 XY         NaN
   44  C  3 XZ         NaN
   45  C  3 YZ         NaN
   46  C  4  S         NaN
   47  C  4  S         NaN
   48  C  4  X         NaN
   49  C  4  Y         NaN
   50  C  4  Z         NaN
   51  C  4  S         NaN
   52  C  4  X         NaN
   53  C  4  Y         NaN
   54  C  4  Z         NaN
   55  C  4 XX         NaN
   56  C  4 YY         NaN
   57  C  4 ZZ         NaN
   58  C  4 XY         NaN
   59  C  4 XZ         NaN
   60  C  4 YZ         NaN
   61  C  5  S         NaN
   62  C  5  S         NaN
   63  C  5  X         NaN
   64  C  5  Y         NaN
   65  C  5  Z         NaN
   66  C  5  S         NaN
   67  C  5  X         NaN
   68  C  5  Y         NaN
   69  C  5  Z         NaN
   70  C  5 XX         NaN
   71  C  5 YY         NaN
   72  C  5 ZZ         NaN
   73  C  5 XY         NaN
   74  C  5 XZ         NaN
   75  C  5 YZ         NaN
   76  C  6  S         NaN
   77  C  6  S         NaN
   78  C  6  X         NaN
   79  C  6  Y         NaN
   80  C  6  Z         NaN
   81  C  6  S         NaN
   82  C  6  X         NaN
   83  C  6  Y         NaN
   84  C  6  Z         NaN
   85  C  6 XX         NaN
   86  C  6 YY         NaN
   87  C  6 ZZ         NaN
   88  C  6 XY         NaN
   89  C  6 XZ         NaN
   90  C  6 YZ         NaN
   91  H  7  S         NaN
   92  H  7  S         NaN
   93  H  8  S         NaN
   94  H  8  S         NaN
   95  H  9  S         NaN
   96  H  9  S         NaN
   97  H 10  S         NaN
   98  H 10  S         NaN
   99  H 11  S         NaN
  100  H 11  S         NaN
  101  H 12  S         NaN
  102  H 12  S         NaN

          ------------------------
          MCSCF OPTIMIZED ORBITALS
          ------------------------

                      1          2          3          4          5
                  -11.2334   -11.2328   -11.2328   -11.2316   -11.2316
                     A          A          A          A          A   
    1  C  1  S    0.405735  -0.054897   0.572264  -0.054123   0.572243
    2  C  1  S    0.011043  -0.001526   0.015907  -0.001515   0.016021
    3  C  1  X   -0.000019   0.000115   0.000054  -0.000115   0.000091
    4  C  1  Y   -0.000032  -0.000076   0.000067   0.000045   0.000180
    5  C  1  Z   -0.000000   0.000000  -0.000000  -0.000000   0.000000
    6  C  1  S   -0.002187   0.000474  -0.004939   0.000916  -0.009669
    7  C  1  X    0.000162  -0.001047  -0.000217   0.001130  -0.000726
    8  C  1  Y    0.000280   0.000630  -0.000141  -0.000471  -0.001487
    9  C  1  Z   -0.000000   0.000000  -0.000000  -0.000000   0.000000
   10  C  1 XX   -0.000936   0.000137  -0.001196  -0.000039  -0.000695
   11  C  1 YY   -0.000912   0.000096  -0.001227   0.000184  -0.000830
   12  C  1 ZZ   -0.001083   0.000135  -0.001402   0.000124  -0.001316
   13  C  1 XY    0.000024   0.000017  -0.000026  -0.000055  -0.000161
   14  C  1 XZ   -0.000000   0.000000  -0.000000  -0.000000   0.000000
   15  C  1 YZ   -0.000000   0.000000  -0.000000  -0.000000   0.000000
   16  C  2  S    0.406144  -0.522726   0.238875   0.522960  -0.238951
   17  C  2  S    0.011054  -0.014531   0.006640   0.014642  -0.006690
   18  C  2  X    0.000019   0.000089   0.000091  -0.000048   0.000139
   19  C  2  Y   -0.000032  -0.000039   0.000094   0.000185  -0.000017
   20  C  2  Z   -0.000000   0.000000  -0.000000  -0.000000   0.000000
   21  C  2  S   -0.002190   0.004514  -0.002064  -0.008844   0.004035
   22  C  2  X   -0.000161  -0.000547  -0.000919   0.000317  -0.001304
   23  C  2  Y    0.000281  -0.000072  -0.000643  -0.001563   0.000041
   24  C  2  Z   -0.000000   0.000000  -0.000000  -0.000000   0.000000
   25  C  2 XX   -0.000936   0.001085  -0.000520  -0.000669   0.000191
   26  C  2 YY   -0.000912   0.001128  -0.000491  -0.000723   0.000446
   27  C  2 ZZ   -0.001084   0.001281  -0.000585  -0.001203   0.000550
   28  C  2 XY   -0.000024  -0.000019   0.000025   0.000170  -0.000001
   29  C  2 XZ   -0.000000   0.000000  -0.000000  -0.000000   0.000000
   30  C  2 YZ   -0.000000   0.000000  -0.000000  -0.000000   0.000000
   31  C  3  S    0.406649  -0.468058  -0.333361  -0.468610  -0.333297
   32  C  3  S    0.011068  -0.013011  -0.009267  -0.013120  -0.009332
   33  C  3  X    0.000037   0.000070   0.000050   0.000165   0.000117
   34  C  3  Y   -0.000000  -0.000080   0.000113   0.000071  -0.000100
   35  C  3  Z   -0.000000   0.000000  -0.000000  -0.000000   0.000000
   36  C  3  S   -0.002195   0.004044   0.002881   0.007928   0.005644
   37  C  3  X   -0.000323  -0.000190  -0.000136  -0.001356  -0.000968
   38  C  3  Y    0.000001   0.000713  -0.001000  -0.000706   0.000994
   39  C  3  Z   -0.000000   0.000000  -0.000000  -0.000000   0.000000
   40  C  3 XX   -0.000901   0.001013   0.000722   0.000750   0.000534
   41  C  3 YY   -0.000949   0.000968   0.000689   0.000497   0.000353
   42  C  3 ZZ   -0.001085   0.001147   0.000817   0.001078   0.000766
   43  C  3 XY    0.000000   0.000017  -0.000024  -0.000081   0.000114
   44  C  3 XZ   -0.000000   0.000000  -0.000000  -0.000000   0.000000
   45  C  3 YZ   -0.000000   0.000000  -0.000000  -0.000000   0.000000
   46  C  4  S    0.406664   0.055108  -0.571771  -0.053917   0.572735
   47  C  4  S    0.011069   0.001532  -0.015894  -0.001510   0.016036
   48  C  4  X    0.000019   0.000115   0.000054   0.000115  -0.000091
   49  C  4  Y    0.000032  -0.000076   0.000068  -0.000045  -0.000180
   50  C  4  Z   -0.000000   0.000000  -0.000000  -0.000000   0.000000
   51  C  4  S   -0.002194  -0.000476   0.004939   0.000911  -0.009693
   52  C  4  X   -0.000162  -0.001048  -0.000218  -0.001129   0.000731
   53  C  4  Y   -0.000281   0.000631  -0.000142   0.000472   0.001495
   54  C  4  Z   -0.000000   0.000000  -0.000000  -0.000000   0.000000
   55  C  4 XX   -0.000938  -0.000137   0.001194  -0.000040  -0.000695
   56  C  4 YY   -0.000914  -0.000096   0.001226   0.000183  -0.000830
   57  C  4 ZZ   -0.001085  -0.000135   0.001401   0.000124  -0.001317
   58  C  4 XY    0.000024  -0.000017   0.000026  -0.000055  -0.000161
   59  C  4 XZ   -0.000000   0.000000  -0.000000  -0.000000   0.000000
   60  C  4 YZ   -0.000000   0.000000  -0.000000  -0.000000   0.000000
   61  C  5  S    0.406462   0.523143  -0.237974   0.522528  -0.239865
   62  C  5  S    0.011063   0.014542  -0.006615   0.014630  -0.006716
   63  C  5  X   -0.000019   0.000089   0.000091   0.000048  -0.000139
   64  C  5  Y    0.000032  -0.000039   0.000094  -0.000185   0.000017
   65  C  5  Z   -0.000000   0.000000  -0.000000  -0.000000   0.000000
   66  C  5  S   -0.002194  -0.004520   0.002057  -0.008837   0.004063
   67  C  5  X    0.000162  -0.000547  -0.000919  -0.000315   0.001309
   68  C  5  Y   -0.000279  -0.000071  -0.000643   0.001562  -0.000049
   69  C  5  Z   -0.000000   0.000000  -0.000000  -0.000000   0.000000
   70  C  5 XX   -0.000937  -0.001085   0.000518  -0.000669   0.000192
   71  C  5 YY   -0.000913  -0.001129   0.000489  -0.000723   0.000447
   72  C  5 ZZ   -0.001085  -0.001282   0.000583  -0.001202   0.000551
   73  C  5 XY   -0.000024   0.000019  -0.000025   0.000170  -0.000001
   74  C  5 XZ   -0.000000   0.000000  -0.000000  -0.000000   0.000000
   75  C  5 YZ   -0.000000   0.000000  -0.000000  -0.000000   0.000000
   76  C  6  S    0.405917   0.467737   0.334062  -0.468914  -0.332607
   77  C  6  S    0.011048   0.013002   0.009286  -0.013128  -0.009312
   78  C  6  X   -0.000037   0.000070   0.000050  -0.000165  -0.000117
   79  C  6  Y   -0.000000  -0.000080   0.000113  -0.000071   0.000100
   80  C  6  Z   -0.000000   0.000000  -0.000000  -0.000000   0.000000
   81  C  6  S   -0.002188  -0.004037  -0.002885   0.007927   0.005618
   82  C  6  X    0.000324  -0.000189  -0.000135   0.001355   0.000958
   83  C  6  Y    0.000001   0.000713  -0.001000   0.000706  -0.000994
   84  C  6  Z   -0.000000   0.000000  -0.000000  -0.000000   0.000000
   85  C  6 XX   -0.000900  -0.001013  -0.000723   0.000751   0.000533
   86  C  6 YY   -0.000948  -0.000968  -0.000691   0.000498   0.000353
   87  C  6 ZZ   -0.001084  -0.001146  -0.000819   0.001078   0.000765
   88  C  6 XY   -0.000000  -0.000017   0.000024  -0.000081   0.000114
   89  C  6 XZ   -0.000000   0.000000  -0.000000  -0.000000   0.000000
   90  C  6 YZ   -0.000000   0.000000  -0.000000  -0.000000   0.000000
   91  H  7  S   -0.000107   0.000120  -0.000055  -0.000076   0.000035
   92  H  7  S    0.000830  -0.000832   0.000381   0.000769  -0.000352
   93  H  8  S   -0.000107   0.000107   0.000076   0.000068   0.000048
   94  H  8  S    0.000830  -0.000745  -0.000531  -0.000689  -0.000489
   95  H  9  S   -0.000107  -0.000013   0.000131   0.000008  -0.000083
   96  H  9  S    0.000831   0.000088  -0.000911  -0.000079   0.000842
   97  H 10  S   -0.000107  -0.000107  -0.000077   0.000068   0.000048
   98  H 10  S    0.000829   0.000745   0.000532  -0.000690  -0.000490
   99  H 11  S   -0.000107  -0.000120   0.000054  -0.000076   0.000035
  100  H 11  S    0.000830   0.000833  -0.000379   0.000769  -0.000352
  101  H 12  S   -0.000107   0.000013  -0.000131   0.000008  -0.000083
  102  H 12  S    0.000829  -0.000087   0.000912  -0.000080   0.000842

                      6          7          8          9         10
                  -11.2310    -1.1433    -1.0082    -1.0081    -0.8172
                     A          A          A          A          A   
    1  C  1  S    0.407272  -0.092355  -0.013184   0.127545  -0.099013
    2  C  1  S    0.011670   0.175211   0.025420  -0.245913   0.197687
    3  C  1  X    0.000107   0.029772   0.100351  -0.003378  -0.005329
    4  C  1  Y    0.000186   0.051567  -0.054688  -0.029473  -0.070330
    5  C  1  Z    0.000000  -0.000000   0.000000   0.000000  -0.000000
    6  C  1  S   -0.015180   0.111716   0.019755  -0.191104   0.166284
    7  C  1  X   -0.002736   0.003375   0.014379   0.003811  -0.021852
    8  C  1  Y   -0.004740   0.005845  -0.008851   0.003111  -0.053380
    9  C  1  Z    0.000000  -0.000000   0.000000   0.000000  -0.000000
   10  C  1 XX   -0.000195   0.007645   0.009803  -0.008467   0.004636
   11  C  1 YY   -0.000333   0.006238  -0.008006  -0.008916   0.006811
   12  C  1 ZZ   -0.000784  -0.008350  -0.001048   0.010135  -0.007047
   13  C  1 XY   -0.000138  -0.001407   0.005747   0.001986   0.005837
   14  C  1 XZ    0.000000  -0.000000   0.000000   0.000000  -0.000000
   15  C  1 YZ    0.000000  -0.000000   0.000000   0.000000  -0.000000
   16  C  2  S   -0.406867  -0.092355  -0.117050   0.052353   0.036627
   17  C  2  S   -0.011659   0.175210   0.225679  -0.100940  -0.073128
   18  C  2  X    0.000107  -0.029773   0.028126   0.096386  -0.177528
   19  C  2  Y   -0.000186   0.051567   0.045080   0.042750  -0.075344
   20  C  2  Z    0.000000  -0.000000   0.000000   0.000000  -0.000000
   21  C  2  S    0.015174   0.111713   0.175379  -0.078442  -0.061511
   22  C  2  X   -0.002737  -0.003374   0.008111   0.012470  -0.052706
   23  C  2  Y    0.004739   0.005843  -0.000192   0.009380  -0.006017
   24  C  2  Z    0.000000  -0.000000   0.000000   0.000000  -0.000000
   25  C  2 XX    0.000194   0.007645   0.004982  -0.011957   0.007398
   26  C  2 YY    0.000332   0.006238   0.010971   0.004822  -0.011632
   27  C  2 ZZ    0.000783  -0.008350  -0.009301   0.004160   0.002607
   28  C  2 XY   -0.000138   0.001407   0.003681   0.004839  -0.003916
   29  C  2 XZ    0.000000  -0.000000   0.000000   0.000000  -0.000000
   30  C  2 YZ    0.000000  -0.000000   0.000000   0.000000  -0.000000
   31  C  3  S    0.406362  -0.092354  -0.103865  -0.075191   0.062386
   32  C  3  S    0.011645   0.175208   0.200258   0.144971  -0.124559
   33  C  3  X   -0.000214  -0.059544  -0.022163  -0.016045  -0.040055
   34  C  3  Y   -0.000000  -0.000002  -0.067354   0.093037   0.160865
   35  C  3  Z    0.000000  -0.000000   0.000000   0.000000  -0.000000
   36  C  3  S   -0.015165   0.111713   0.155624   0.112660  -0.104772
   37  C  3  X    0.005471  -0.006749   0.003746   0.002712  -0.036012
   38  C  3  Y    0.000001  -0.000000  -0.009950   0.013745   0.040888
   39  C  3  Z    0.000000  -0.000000   0.000000   0.000000  -0.000000
   40  C  3 XX   -0.000400   0.005535   0.005956   0.004312  -0.006707
   41  C  3 YY   -0.000125   0.008349   0.008200   0.005936  -0.000505
   42  C  3 ZZ   -0.000781  -0.008350  -0.008254  -0.005975   0.004440
   43  C  3 XY    0.000000   0.000000   0.006944  -0.009591  -0.009642
   44  C  3 XZ    0.000000  -0.000000   0.000000   0.000000  -0.000000
   45  C  3 YZ    0.000000  -0.000000   0.000000   0.000000  -0.000000
   46  C  4  S   -0.406344  -0.092353   0.013185  -0.127546  -0.099013
   47  C  4  S   -0.011644   0.175207  -0.025421   0.245915   0.197687
   48  C  4  X    0.000107  -0.029772   0.100349  -0.003381   0.005329
   49  C  4  Y    0.000185  -0.051566  -0.054687  -0.029473   0.070330
   50  C  4  Z    0.000000  -0.000000   0.000000   0.000000  -0.000000
   51  C  4  S    0.015164   0.111712  -0.019755   0.191106   0.166285
   52  C  4  X   -0.002735  -0.003374   0.014379   0.003810   0.021852
   53  C  4  Y   -0.004737  -0.005845  -0.008851   0.003111   0.053380
   54  C  4  Z    0.000000  -0.000000   0.000000   0.000000  -0.000000
   55  C  4 XX    0.000194   0.007645  -0.009803   0.008467   0.004636
   56  C  4 YY    0.000331   0.006238   0.008006   0.008916   0.006811
   57  C  4 ZZ    0.000781  -0.008350   0.001048  -0.010135  -0.007047
   58  C  4 XY    0.000138  -0.001407  -0.005747  -0.001986   0.005837
   59  C  4 XZ    0.000000  -0.000000   0.000000   0.000000  -0.000000
   60  C  4 YZ    0.000000  -0.000000   0.000000   0.000000  -0.000000
   61  C  5  S    0.406559  -0.092355   0.117049  -0.052355   0.036627
   62  C  5  S    0.011650   0.175209  -0.225676   0.100944  -0.073129
   63  C  5  X    0.000107   0.029772   0.028126   0.096387   0.177529
   64  C  5  Y   -0.000186  -0.051568   0.045080   0.042750   0.075345
   65  C  5  Z    0.000000  -0.000000   0.000000   0.000000  -0.000000
   66  C  5  S   -0.015169   0.111714  -0.175377   0.078444  -0.061512
   67  C  5  X   -0.002735   0.003374   0.008111   0.012470   0.052707
   68  C  5  Y    0.004739  -0.005844  -0.000192   0.009381   0.006017
   69  C  5  Z    0.000000  -0.000000   0.000000   0.000000  -0.000000
   70  C  5 XX   -0.000194   0.007645  -0.004982   0.011957   0.007398
   71  C  5 YY   -0.000331   0.006238  -0.010971  -0.004822  -0.011632
   72  C  5 ZZ   -0.000782  -0.008350   0.009301  -0.004160   0.002607
   73  C  5 XY    0.000138   0.001407  -0.003681  -0.004839  -0.003916
   74  C  5 XZ    0.000000  -0.000000   0.000000   0.000000  -0.000000
   75  C  5 YZ    0.000000  -0.000000   0.000000   0.000000  -0.000000
   76  C  6  S   -0.407102  -0.092355   0.103865   0.075190   0.062386
   77  C  6  S   -0.011665   0.175211  -0.200258  -0.144971  -0.124558
   78  C  6  X   -0.000214   0.059545  -0.022163  -0.016045   0.040055
   79  C  6  Y    0.000000   0.000001  -0.067353   0.093038  -0.160867
   80  C  6  Z    0.000000  -0.000000   0.000000   0.000000  -0.000000
   81  C  6  S    0.015177   0.111714  -0.155624  -0.112659  -0.104772
   82  C  6  X    0.005473   0.006748   0.003746   0.002713   0.036012
   83  C  6  Y   -0.000001   0.000000  -0.009950   0.013745  -0.040888
   84  C  6  Z    0.000000  -0.000000   0.000000   0.000000  -0.000000
   85  C  6 XX    0.000401   0.005535  -0.005956  -0.004312  -0.006707
   86  C  6 YY    0.000126   0.008349  -0.008200  -0.005936  -0.000506
   87  C  6 ZZ    0.000783  -0.008350   0.008254   0.005975   0.004440
   88  C  6 XY    0.000000  -0.000000  -0.006944   0.009592  -0.009642
   89  C  6 XZ    0.000000  -0.000000   0.000000   0.000000  -0.000000
   90  C  6 YZ    0.000000  -0.000000   0.000000   0.000000  -0.000000
   91  H  7  S    0.000145   0.035030   0.069442  -0.031060  -0.041146
   92  H  7  S    0.000201   0.003686   0.013611  -0.006088  -0.012820
   93  H  8  S   -0.000145   0.035029   0.061619   0.044608  -0.070085
   94  H  8  S   -0.000202   0.003687   0.012078   0.008744  -0.021837
   95  H  9  S    0.000145   0.035030  -0.007822   0.075669   0.111234
   96  H  9  S    0.000202   0.003687  -0.001533   0.014833   0.034659
   97  H 10  S    0.000145   0.035030  -0.061619  -0.044608  -0.070085
   98  H 10  S    0.000201   0.003687  -0.012078  -0.008744  -0.021837
   99  H 11  S   -0.000145   0.035029  -0.069440   0.031060  -0.041147
  100  H 11  S   -0.000202   0.003687  -0.013611   0.006088  -0.012821
  101  H 12  S   -0.000145   0.035031   0.007822  -0.075669   0.111234
  102  H 12  S   -0.000201   0.003687   0.001533  -0.014833   0.034659

                     11         12         13         14         15
                   -0.8172    -0.7024    -0.6381    -0.6113    -0.5816
                     A          A          A          A          A   
    1  C  1  S    0.014872   0.007694  -0.056058   0.000000  -0.001715
    2  C  1  S   -0.029693  -0.013439   0.115406  -0.000001   0.003823
    3  C  1  X    0.180917   0.096872  -0.065732   0.235668   0.086400
    4  C  1  Y   -0.093425   0.167791  -0.113860  -0.136062  -0.021402
    5  C  1  Z   -0.000000   0.000000  -0.000000  -0.000000   0.000000
    6  C  1  S   -0.024976  -0.033708   0.058109  -0.000000   0.002515
    7  C  1  X    0.049064   0.035687  -0.064929   0.083085   0.030877
    8  C  1  Y   -0.018414   0.061813  -0.112465  -0.047968  -0.005247
    9  C  1  Z   -0.000000   0.000000  -0.000000  -0.000000   0.000000
   10  C  1 XX    0.008653  -0.001238  -0.004768   0.007302   0.011165
   11  C  1 YY   -0.010372  -0.003974   0.010981  -0.007301  -0.011814
   12  C  1 ZZ    0.001059   0.000586  -0.003466   0.000000  -0.000006
   13  C  1 XY    0.005356  -0.002736   0.015749   0.004868   0.006257
   14  C  1 XZ   -0.000000   0.000000  -0.000000  -0.000000   0.000000
   15  C  1 YZ   -0.000000   0.000000  -0.000000  -0.000000   0.000000
   16  C  2  S   -0.093184   0.007696   0.056059   0.000000  -0.018465
   17  C  2  S    0.186048  -0.013443  -0.115407  -0.000000   0.041153
   18  C  2  X   -0.035245  -0.096876  -0.065733  -0.235666  -0.101183
   19  C  2  Y   -0.089433   0.167791   0.113847  -0.136065   0.248276
   20  C  2  Z   -0.000000   0.000000  -0.000000  -0.000000   0.000000
   21  C  2  S    0.156495  -0.033713  -0.058111  -0.000001   0.027064
   22  C  2  X    0.010333  -0.035689  -0.064931  -0.083084  -0.047805
   23  C  2  Y   -0.056146   0.061815   0.112461  -0.047971   0.107871
   24  C  2  Z   -0.000000   0.000000  -0.000000  -0.000000   0.000000
   25  C  2 XX    0.006453  -0.001238   0.004768   0.007302  -0.002508
   26  C  2 YY    0.004320  -0.003974  -0.010981  -0.007302  -0.004477
   27  C  2 ZZ   -0.006633   0.000586   0.003466   0.000000  -0.000062
   28  C  2 XY   -0.006887   0.002736   0.015749  -0.004868   0.014450
   29  C  2 XZ   -0.000000   0.000000  -0.000000  -0.000000   0.000000
   30  C  2 YZ   -0.000000   0.000000  -0.000000  -0.000000   0.000000
   31  C  3  S    0.078312   0.007695  -0.056058   0.000000  -0.016751
   32  C  3  S   -0.156356  -0.013441   0.115406  -0.000001   0.037333
   33  C  3  X   -0.050280  -0.193746   0.131467  -0.000001  -0.240932
   34  C  3  Y   -0.128152  -0.000000   0.000005   0.272126  -0.049010
   35  C  3  Z   -0.000000   0.000000  -0.000000  -0.000000   0.000000
   36  C  3  S   -0.131521  -0.033710   0.058111   0.000001   0.024552
   37  C  3  X   -0.045205  -0.071376   0.129861  -0.000002  -0.106422
   38  C  3  Y   -0.032574   0.000000   0.000002   0.095937  -0.016827
   39  C  3  Z   -0.000000   0.000000  -0.000000  -0.000000   0.000000
   40  C  3 XX   -0.008420  -0.005341   0.018856   0.000000  -0.013445
   41  C  3 YY   -0.000634   0.000130  -0.012642  -0.000000   0.007109
   42  C  3 ZZ    0.005574   0.000586  -0.003466   0.000000  -0.000057
   43  C  3 XY    0.007681  -0.000000   0.000000  -0.009736   0.008376
   44  C  3 XZ   -0.000000   0.000000  -0.000000  -0.000000   0.000000
   45  C  3 YZ   -0.000000   0.000000  -0.000000  -0.000000   0.000000
   46  C  4  S    0.014872   0.007696   0.056058  -0.000001   0.001715
   47  C  4  S   -0.029693  -0.013442  -0.115406   0.000001  -0.003823
   48  C  4  X   -0.180916  -0.096872  -0.065733   0.235668   0.086397
   49  C  4  Y    0.093424  -0.167791  -0.113855  -0.136060  -0.021396
   50  C  4  Z   -0.000000   0.000000  -0.000000  -0.000000   0.000000
   51  C  4  S   -0.024976  -0.033711  -0.058110   0.000002  -0.002513
   52  C  4  X   -0.049064  -0.035688  -0.064930   0.083085   0.030876
   53  C  4  Y    0.018413  -0.061814  -0.112463  -0.047968  -0.005245
   54  C  4  Z   -0.000000   0.000000  -0.000000  -0.000000   0.000000
   55  C  4 XX    0.008653  -0.001237   0.004768  -0.007302  -0.011165
   56  C  4 YY   -0.010372  -0.003974  -0.010982   0.007302   0.011814
   57  C  4 ZZ    0.001059   0.000586   0.003466  -0.000000   0.000006
   58  C  4 XY    0.005356  -0.002736  -0.015749  -0.004868  -0.006257
   59  C  4 XZ   -0.000000   0.000000  -0.000000  -0.000000   0.000000
   60  C  4 YZ   -0.000000   0.000000  -0.000000  -0.000000   0.000000
   61  C  5  S   -0.093184   0.007695  -0.056059   0.000001   0.018465
   62  C  5  S    0.186048  -0.013441   0.115408  -0.000001  -0.041154
   63  C  5  X    0.035243   0.096875  -0.065732  -0.235664  -0.101181
   64  C  5  Y    0.089430  -0.167787   0.113851  -0.136069   0.248270
   65  C  5  Z   -0.000000   0.000000  -0.000000  -0.000000   0.000000
   66  C  5  S    0.156495  -0.033712   0.058112  -0.000001  -0.027065
   67  C  5  X   -0.010334   0.035689  -0.064931  -0.083082  -0.047805
   68  C  5  Y    0.056145  -0.061812   0.112462  -0.047972   0.107869
   69  C  5  Z   -0.000000   0.000000  -0.000000  -0.000000   0.000000
   70  C  5 XX    0.006453  -0.001238  -0.004767  -0.007302   0.002508
   71  C  5 YY    0.004320  -0.003973   0.010981   0.007302   0.004476
   72  C  5 ZZ   -0.006632   0.000586  -0.003466  -0.000000   0.000062
   73  C  5 XY   -0.006886   0.002736  -0.015749   0.004868  -0.014450
   74  C  5 XZ   -0.000000   0.000000  -0.000000  -0.000000   0.000000
   75  C  5 YZ   -0.000000   0.000000  -0.000000  -0.000000   0.000000
   76  C  6  S    0.078311   0.007696   0.056059  -0.000001   0.016750
   77  C  6  S   -0.156353  -0.013443  -0.115407   0.000001  -0.037332
   78  C  6  X    0.050279   0.193749   0.131462  -0.000002  -0.240934
   79  C  6  Y    0.128154  -0.000001   0.000005   0.272126  -0.049004
   80  C  6  Z   -0.000000   0.000000  -0.000000  -0.000000   0.000000
   81  C  6  S   -0.131517  -0.033712  -0.058111   0.000001  -0.024552
   82  C  6  X    0.045204   0.071378   0.129860  -0.000002  -0.106423
   83  C  6  Y    0.032574  -0.000000   0.000002   0.095937  -0.016825
   84  C  6  Z   -0.000000   0.000000  -0.000000  -0.000000   0.000000
   85  C  6 XX   -0.008420  -0.005342  -0.018855  -0.000000   0.013446
   86  C  6 YY   -0.000634   0.000130   0.012642   0.000000  -0.007110
   87  C  6 ZZ    0.005574   0.000586   0.003466  -0.000000   0.000057
   88  C  6 XY    0.007681  -0.000000  -0.000000   0.009736  -0.008376
   89  C  6 XZ   -0.000000   0.000000  -0.000000  -0.000000   0.000000
   90  C  6 YZ   -0.000000   0.000000  -0.000000  -0.000000   0.000000
   91  H  7  S    0.104685  -0.111035  -0.136172   0.000001  -0.148962
   92  H  7  S    0.032619  -0.066269  -0.066637   0.000001  -0.115272
   93  H  8  S   -0.087978  -0.111032   0.136175   0.000001  -0.135123
   94  H  8  S   -0.027413  -0.066268   0.066640   0.000001  -0.104564
   95  H  9  S   -0.016708  -0.111033  -0.136176   0.000001   0.013835
   96  H  9  S   -0.005206  -0.066269  -0.066639   0.000001   0.010706
   97  H 10  S   -0.087976  -0.111035  -0.136173   0.000001   0.135125
   98  H 10  S   -0.027412  -0.066269  -0.066637   0.000000   0.104565
   99  H 11  S    0.104683  -0.111031   0.136174  -0.000004   0.148958
  100  H 11  S    0.032618  -0.066268   0.066639  -0.000003   0.115269
  101  H 12  S   -0.016707  -0.111032   0.136178   0.000000  -0.013832
  102  H 12  S   -0.005206  -0.066268   0.066641   0.000000  -0.010704

                     16         17         18         19         20
                   -0.5816    -0.4885    -0.4885    -0.4951    -0.3296
                     A          A          A          A          A   
    1  C  1  S   -0.020333   0.004642  -0.000167   0.000000  -0.000000
    2  C  1  S    0.045317  -0.015267   0.000548   0.000000  -0.000000
    3  C  1  X    0.139974  -0.119215  -0.217609   0.000000  -0.000000
    4  C  1  Y    0.256872  -0.188110   0.134859   0.000000  -0.000000
    5  C  1  Z    0.000000  -0.000000  -0.000000   0.209834   0.031098
    6  C  1  S    0.029804   0.005415  -0.000195   0.000000  -0.000000
    7  C  1  X    0.062442  -0.068236  -0.094643   0.000000  -0.000000
    8  C  1  Y    0.113107  -0.110147   0.060010   0.000000  -0.000000
    9  C  1  Z    0.000000  -0.000000  -0.000000   0.136800   0.026450
   10  C  1 XX    0.001468  -0.007576  -0.011459   0.000000  -0.000000
   11  C  1 YY   -0.009158   0.015916   0.011160   0.000000  -0.000000
   12  C  1 ZZ   -0.000069  -0.000880   0.000032   0.000000  -0.000000
   13  C  1 XY   -0.013091   0.022369  -0.008624   0.000000  -0.000000
   14  C  1 XZ    0.000000  -0.000000  -0.000000   0.005977   0.019202
   15  C  1 YZ    0.000000  -0.000000  -0.000000   0.010352  -0.010011
   16  C  2  S   -0.008680  -0.002176   0.004103   0.000000  -0.000000
   17  C  2  S    0.019346   0.007158  -0.013495   0.000000  -0.000000
   18  C  2  X   -0.129695   0.143727   0.202258   0.000000  -0.000000
   19  C  2  Y    0.069299   0.203456  -0.110349   0.000000  -0.000000
   20  C  2  Z    0.000000  -0.000000  -0.000000   0.209833   0.286348
   21  C  2  S    0.012726  -0.002542   0.004789   0.000000  -0.000000
   22  C  2  X   -0.050671   0.055355   0.102709   0.000000  -0.000000
   23  C  2  Y    0.034433   0.102078  -0.072891   0.000000  -0.000000
   24  C  2  Z    0.000000  -0.000000  -0.000000   0.136799   0.243551
   25  C  2 XX    0.010978  -0.007002  -0.011819   0.000000  -0.000000
   26  C  2 YY   -0.014262   0.003092   0.019191   0.000000  -0.000000
   27  C  2 ZZ   -0.000029   0.000413  -0.000778   0.000000  -0.000000
   28  C  2 XY   -0.001311   0.017525  -0.016359   0.000000  -0.000000
   29  C  2 XZ    0.000000  -0.000000  -0.000000  -0.005977   0.003467
   30  C  2 YZ    0.000000  -0.000000  -0.000000   0.010352   0.011903
   31  C  3  S    0.011651  -0.002466  -0.003937   0.000000  -0.000000
   32  C  3  S   -0.025966   0.008109   0.012948   0.000000  -0.000000
   33  C  3  X    0.167587  -0.118174  -0.188710   0.000000  -0.000000
   34  C  3  Y   -0.070457  -0.217011   0.135900   0.000000  -0.000000
   35  C  3  Z    0.000000  -0.000000  -0.000000   0.209832   0.255250
   36  C  3  S   -0.017081  -0.002877  -0.004592   0.000000  -0.000000
   37  C  3  X    0.074028  -0.068779  -0.109833   0.000000  -0.000000
   38  C  3  Y   -0.024190  -0.094958   0.059466   0.000000  -0.000000
   39  C  3  Z    0.000000  -0.000000  -0.000000   0.136799   0.217100
   40  C  3 XX    0.009352  -0.014244  -0.022745   0.000000  -0.000000
   41  C  3 YY   -0.004945   0.009815   0.015672   0.000000  -0.000000
   42  C  3 ZZ    0.000039   0.000468   0.000747   0.000000  -0.000000
   43  C  3 XY    0.012043   0.013248  -0.008297   0.000000  -0.000000
   44  C  3 XZ    0.000000  -0.000000  -0.000000  -0.011953  -0.007643
   45  C  3 YZ    0.000000  -0.000000  -0.000000  -0.000000  -0.012681
   46  C  4  S    0.020333   0.004642  -0.000167   0.000000  -0.000000
   47  C  4  S   -0.045317  -0.015266   0.000548   0.000000  -0.000000
   48  C  4  X    0.139978   0.119210   0.217611   0.000000  -0.000000
   49  C  4  Y    0.256876   0.188106  -0.134863   0.000000  -0.000000
   50  C  4  Z    0.000000  -0.000000  -0.000000   0.209831  -0.031099
   51  C  4  S   -0.029803   0.005416  -0.000193   0.000000  -0.000000
   52  C  4  X    0.062443   0.068234   0.094643   0.000000  -0.000000
   53  C  4  Y    0.113109   0.110144  -0.060013   0.000000  -0.000000
   54  C  4  Z    0.000000  -0.000000  -0.000000   0.136798  -0.026451
   55  C  4 XX   -0.001468  -0.007576  -0.011459   0.000000  -0.000000
   56  C  4 YY    0.009158   0.015915   0.011160   0.000000  -0.000000
   57  C  4 ZZ    0.000069  -0.000880   0.000032   0.000000  -0.000000
   58  C  4 XY    0.013091   0.022369  -0.008625   0.000000  -0.000000
   59  C  4 XZ    0.000000  -0.000000  -0.000000  -0.005977   0.019202
   60  C  4 YZ    0.000000  -0.000000  -0.000000  -0.010352  -0.010011
   61  C  5  S    0.008680  -0.002177   0.004104   0.000000  -0.000000
   62  C  5  S   -0.019346   0.007160  -0.013496   0.000000  -0.000000
   63  C  5  X   -0.129700  -0.143722  -0.202261   0.000000  -0.000000
   64  C  5  Y    0.069298  -0.203461   0.110352   0.000000  -0.000000
   65  C  5  Z    0.000000  -0.000000  -0.000000   0.209833  -0.286346
   66  C  5  S   -0.012725  -0.002539   0.004787   0.000000  -0.000000
   67  C  5  X   -0.050673  -0.055352  -0.102712   0.000000  -0.000000
   68  C  5  Y    0.034433  -0.102081   0.072894   0.000000  -0.000000
   69  C  5  Z    0.000000  -0.000000  -0.000000   0.136799  -0.243548
   70  C  5 XX   -0.010978  -0.007002  -0.011819   0.000000  -0.000000
   71  C  5 YY    0.014262   0.003092   0.019191   0.000000  -0.000000
   72  C  5 ZZ    0.000029   0.000413  -0.000778   0.000000  -0.000000
   73  C  5 XY    0.001311   0.017525  -0.016360   0.000000  -0.000000
   74  C  5 XZ    0.000000  -0.000000  -0.000000   0.005977   0.003467
   75  C  5 YZ    0.000000  -0.000000  -0.000000  -0.010352   0.011902
   76  C  6  S   -0.011651  -0.002465  -0.003936   0.000000  -0.000000
   77  C  6  S    0.025966   0.008108   0.012946   0.000000  -0.000000
   78  C  6  X    0.167590   0.118175   0.188705   0.000000  -0.000000
   79  C  6  Y   -0.070453   0.217012  -0.135898   0.000000  -0.000000
   80  C  6  Z    0.000000  -0.000000  -0.000000   0.209834  -0.255248
   81  C  6  S    0.017079  -0.002878  -0.004595   0.000000  -0.000000
   82  C  6  X    0.074029   0.068780   0.109831   0.000000  -0.000000
   83  C  6  Y   -0.024188   0.094958  -0.059465   0.000000  -0.000000
   84  C  6  Z    0.000000  -0.000000  -0.000000   0.136800  -0.217099
   85  C  6 XX   -0.009353  -0.014244  -0.022744   0.000000  -0.000000
   86  C  6 YY    0.004945   0.009815   0.015672   0.000000  -0.000000
   87  C  6 ZZ   -0.000039   0.000468   0.000747   0.000000  -0.000000
   88  C  6 XY   -0.012043   0.013248  -0.008297   0.000000  -0.000000
   89  C  6 XZ    0.000000  -0.000000  -0.000000   0.011954  -0.007643
   90  C  6 YZ    0.000000  -0.000000  -0.000000   0.000000  -0.012681
   91  H  7  S   -0.070028  -0.076355   0.143946   0.000000  -0.000000
   92  H  7  S   -0.054190  -0.067508   0.127267   0.000000  -0.000000
   93  H  8  S    0.093989  -0.086484  -0.138102   0.000000  -0.000000
   94  H  8  S    0.072732  -0.076463  -0.122100   0.000000  -0.000000
   95  H  9  S    0.164016   0.162839  -0.005848   0.000000  -0.000000
   96  H  9  S    0.126923   0.143969  -0.005170   0.000000  -0.000000
   97  H 10  S   -0.093991  -0.086485  -0.138099   0.000000  -0.000000
   98  H 10  S   -0.072734  -0.076464  -0.122097   0.000000  -0.000000
   99  H 11  S    0.070029  -0.076358   0.143950   0.000000  -0.000000
  100  H 11  S    0.054191  -0.067511   0.127270   0.000000  -0.000000
  101  H 12  S   -0.164012   0.162843  -0.005846   0.000000  -0.000000
  102  H 12  S   -0.126920   0.143973  -0.005169   0.000000  -0.000000

                     21         22         23         24         25
                   -0.3296     0.1475     0.1475     0.2333     0.2925
                     A          A          A          A          A   
    1  C  1  S    0.000000   0.000000   0.000000   0.037772   0.005534
    2  C  1  S    0.000000   0.000000   0.000000  -0.047069  -0.002018
    3  C  1  X    0.000000   0.000000   0.000000   0.054098   0.000343
    4  C  1  Y    0.000000   0.000000   0.000000   0.093701   0.033875
    5  C  1  Z   -0.312690   0.308153  -0.034407   0.000000  -0.000000
    6  C  1  S    0.000000   0.000000   0.000000  -0.554448  -0.162826
    7  C  1  X    0.000000   0.000000   0.000000   0.154473   0.310545
    8  C  1  Y    0.000000   0.000000   0.000000   0.267562  -0.064769
    9  C  1  Z   -0.265956   0.565857  -0.063181   0.000000  -0.000000
   10  C  1 XX    0.000000   0.000000   0.000000  -0.004445   0.008219
   11  C  1 YY    0.000000   0.000000   0.000000   0.010405  -0.008361
   12  C  1 ZZ    0.000000   0.000000   0.000000   0.000361   0.000678
   13  C  1 XY    0.000000   0.000000   0.000000   0.014849   0.006705
   14  C  1 XZ   -0.002818  -0.001670   0.028910   0.000000  -0.000000
   15  C  1 YZ   -0.009184  -0.010208  -0.015444   0.000000  -0.000000
   16  C  2  S    0.000000   0.000000   0.000000   0.037773   0.035517
   17  C  2  S    0.000000   0.000000   0.000000  -0.047072  -0.012955
   18  C  2  X    0.000000   0.000000   0.000000  -0.054097  -0.100065
   19  C  2  Y    0.000000   0.000000   0.000000   0.093701   0.160895
   20  C  2  Z   -0.129411  -0.124277   0.284072   0.000000  -0.000000
   21  C  2  S    0.000000   0.000000   0.000000  -0.554437  -1.044847
   22  C  2  X    0.000000   0.000000   0.000000  -0.154485  -0.220878
   23  C  2  Y    0.000000   0.000000   0.000000   0.267577   0.607518
   24  C  2  Z   -0.110070  -0.228208   0.521640   0.000000  -0.000000
   25  C  2 XX    0.000000   0.000000   0.000000  -0.004444  -0.006550
   26  C  2 YY    0.000000   0.000000   0.000000   0.010404   0.005640
   27  C  2 ZZ    0.000000   0.000000   0.000000   0.000361   0.004350
   28  C  2 XY    0.000000   0.000000   0.000000  -0.014849  -0.003500
   29  C  2 XZ    0.019095  -0.028104  -0.006982   0.000000  -0.000000
   30  C  2 YZ    0.006550  -0.011720  -0.014330   0.000000  -0.000000
   31  C  3  S    0.000000   0.000000   0.000000   0.037773   0.029982
   32  C  3  S    0.000000   0.000000   0.000000  -0.047070  -0.010934
   33  C  3  X    0.000000   0.000000   0.000000  -0.108196  -0.159865
   34  C  3  Y    0.000000   0.000000   0.000000  -0.000002   0.010428
   35  C  3  Z    0.183277  -0.183875  -0.249665   0.000000  -0.000000
   36  C  3  S    0.000000   0.000000   0.000000  -0.554448  -0.882050
   37  C  3  X    0.000000   0.000000   0.000000  -0.308952  -0.537354
   38  C  3  Y    0.000000   0.000000   0.000000  -0.000007  -0.188849
   39  C  3  Z    0.155885  -0.337645  -0.458459   0.000000  -0.000000
   40  C  3 XX    0.000000   0.000000   0.000000   0.017829   0.004404
   41  C  3 YY    0.000000   0.000000   0.000000  -0.011869  -0.005173
   42  C  3 ZZ    0.000000   0.000000   0.000000   0.000361   0.003672
   43  C  3 XY    0.000000   0.000000   0.000000   0.000000   0.007297
   44  C  3 XZ   -0.005488  -0.005773  -0.007839   0.000000  -0.000000
   45  C  3 YZ    0.017660   0.026541  -0.019547   0.000000  -0.000000
   46  C  4  S    0.000000   0.000000   0.000000   0.037772  -0.005533
   47  C  4  S    0.000000   0.000000   0.000000  -0.047071   0.002016
   48  C  4  X    0.000000   0.000000   0.000000  -0.054097   0.000342
   49  C  4  Y    0.000000   0.000000   0.000000  -0.093700   0.033873
   50  C  4  Z    0.312692   0.308154  -0.034407   0.000000  -0.000000
   51  C  4  S    0.000000   0.000000   0.000000  -0.554430   0.162798
   52  C  4  X    0.000000   0.000000   0.000000  -0.154480   0.310533
   53  C  4  Y    0.000000   0.000000   0.000000  -0.267571  -0.064776
   54  C  4  Z    0.265958   0.565857  -0.063183   0.000000  -0.000000
   55  C  4 XX    0.000000   0.000000   0.000000  -0.004445  -0.008219
   56  C  4 YY    0.000000   0.000000   0.000000   0.010405   0.008361
   57  C  4 ZZ    0.000000   0.000000   0.000000   0.000361  -0.000678
   58  C  4 XY    0.000000   0.000000   0.000000   0.014849  -0.006705
   59  C  4 XZ   -0.002818   0.001670  -0.028910   0.000000  -0.000000
   60  C  4 YZ   -0.009184   0.010208   0.015444   0.000000  -0.000000
   61  C  5  S    0.000000   0.000000   0.000000   0.037774  -0.035517
   62  C  5  S    0.000000   0.000000   0.000000  -0.047071   0.012956
   63  C  5  X    0.000000   0.000000   0.000000   0.054100  -0.100066
   64  C  5  Y    0.000000   0.000000   0.000000  -0.093704   0.160895
   65  C  5  Z    0.129415  -0.124281   0.284072   0.000000  -0.000000
   66  C  5  S    0.000000   0.000000   0.000000  -0.554457   1.044843
   67  C  5  X    0.000000   0.000000   0.000000   0.154483  -0.220884
   68  C  5  Y    0.000000   0.000000   0.000000  -0.267568   0.607515
   69  C  5  Z    0.110073  -0.228213   0.521639   0.000000  -0.000000
   70  C  5 XX    0.000000   0.000000   0.000000  -0.004444   0.006550
   71  C  5 YY    0.000000   0.000000   0.000000   0.010404  -0.005640
   72  C  5 ZZ    0.000000   0.000000   0.000000   0.000361  -0.004350
   73  C  5 XY    0.000000   0.000000   0.000000  -0.014849   0.003499
   74  C  5 XZ    0.019095   0.028104   0.006982   0.000000  -0.000000
   75  C  5 YZ    0.006550   0.011720   0.014330   0.000000  -0.000000
   76  C  6  S    0.000000   0.000000   0.000000   0.037773  -0.029982
   77  C  6  S    0.000000   0.000000   0.000000  -0.047072   0.010934
   78  C  6  X    0.000000   0.000000   0.000000   0.108198  -0.159863
   79  C  6  Y    0.000000   0.000000   0.000000   0.000002   0.010427
   80  C  6  Z   -0.183277  -0.183874  -0.249663   0.000000  -0.000000
   81  C  6  S    0.000000   0.000000   0.000000  -0.554441   0.882052
   82  C  6  X    0.000000   0.000000   0.000000   0.308974  -0.537352
   83  C  6  Y    0.000000   0.000000   0.000000   0.000007  -0.188862
   84  C  6  Z   -0.155886  -0.337645  -0.458456   0.000000  -0.000000
   85  C  6 XX    0.000000   0.000000   0.000000   0.017829  -0.004404
   86  C  6 YY    0.000000   0.000000   0.000000  -0.011869   0.005173
   87  C  6 ZZ    0.000000   0.000000   0.000000   0.000361  -0.003672
   88  C  6 XY    0.000000   0.000000   0.000000   0.000000  -0.007297
   89  C  6 XZ   -0.005488   0.005773   0.007839   0.000000  -0.000000
   90  C  6 YZ    0.017660  -0.026541   0.019547   0.000000  -0.000000
   91  H  7  S    0.000000   0.000000   0.000000   0.035088   0.007410
   92  H  7  S    0.000000   0.000000   0.000000   0.778323   1.241495
   93  H  8  S    0.000000   0.000000   0.000000   0.035088   0.006255
   94  H  8  S    0.000000   0.000000   0.000000   0.778310   1.048032
   95  H  9  S    0.000000   0.000000   0.000000   0.035088  -0.001154
   96  H  9  S    0.000000   0.000000   0.000000   0.778316  -0.193422
   97  H 10  S    0.000000   0.000000   0.000000   0.035089  -0.006255
   98  H 10  S    0.000000   0.000000   0.000000   0.778330  -1.048026
   99  H 11  S    0.000000   0.000000   0.000000   0.035089  -0.007410
  100  H 11  S    0.000000   0.000000   0.000000   0.778325  -1.241487
  101  H 12  S    0.000000   0.000000   0.000000   0.035088   0.001154
  102  H 12  S    0.000000   0.000000   0.000000   0.778313   0.193447

                     26         27         28         29         30
                    0.2925     0.3311     0.3311     0.3352     0.3670
                     A          A          A          A          A   
    1  C  1  S   -0.037815   0.015354  -0.077254  -0.043978  -0.000000
    2  C  1  S    0.013788  -0.017407   0.087597   0.144897  -0.000000
    3  C  1  X   -0.102922   0.056529  -0.040741  -0.029706  -0.000000
    4  C  1  Y   -0.173399  -0.009686  -0.091956  -0.051450  -0.000000
    5  C  1  Z    0.000000  -0.000000  -0.000000   0.000000  -0.236473
    6  C  1  S    1.112523  -0.298099   1.499625  -0.656478  -0.000000
    7  C  1  X   -0.300674   0.430827  -0.303195  -0.825813  -0.000000
    8  C  1  Y   -0.608986  -0.077082  -0.688825  -1.430349  -0.000000
    9  C  1  Z    0.000000  -0.000000  -0.000000   0.000000  -0.679636
   10  C  1 XX    0.004783  -0.006960  -0.006237  -0.015146  -0.000000
   11  C  1 YY   -0.003813   0.007168   0.005185  -0.008229  -0.000000
   12  C  1 ZZ   -0.004632   0.000556  -0.002794   0.010501  -0.000000
   13  C  1 XY   -0.005187  -0.006905   0.007241   0.006917  -0.000000
   14  C  1 XZ    0.000000  -0.000000  -0.000000   0.000000   0.008147
   15  C  1 YZ    0.000000  -0.000000  -0.000000   0.000000   0.014112
   16  C  2  S   -0.014117   0.059232   0.051923   0.043968  -0.000000
   17  C  2  S    0.005153  -0.067178  -0.058871  -0.144889  -0.000000
   18  C  2  X    0.024097  -0.069656   0.002111  -0.029689  -0.000000
   19  C  2  Y   -0.072992   0.048326   0.078833   0.051438  -0.000000
   20  C  2  Z    0.000000  -0.000000  -0.000000   0.000000   0.236472
   21  C  2  S    0.415245  -1.149538  -1.007977   0.656700  -0.000000
   22  C  2  X    0.371604  -0.526531   0.021933  -0.825698  -0.000000
   23  C  2  Y   -0.077616   0.358588   0.593220   1.430307  -0.000000
   24  C  2  Z    0.000000  -0.000000  -0.000000   0.000000   0.679635
   25  C  2 XX   -0.006893  -0.001719   0.009185   0.015147  -0.000000
   26  C  2 YY    0.007254   0.002530  -0.008479   0.008229  -0.000000
   27  C  2 ZZ   -0.001729   0.002140   0.001878  -0.010502  -0.000000
   28  C  2 XY    0.007721   0.009888   0.001538   0.006915  -0.000000
   29  C  2 XZ    0.000000  -0.000000  -0.000000   0.000000   0.008148
   30  C  2 YZ    0.000000  -0.000000  -0.000000   0.000000  -0.014112
   31  C  3  S    0.023702  -0.074590   0.025337  -0.043957  -0.000000
   32  C  3  S   -0.008648   0.084594  -0.028746   0.144876  -0.000000
   33  C  3  X   -0.126370   0.096560  -0.032797   0.059379  -0.000000
   34  C  3  Y   -0.013193  -0.017637  -0.051940  -0.000003  -0.000000
   35  C  3  Z    0.000000  -0.000000  -0.000000   0.000000  -0.236471
   36  C  3  S   -0.697237   1.447603  -0.491553  -0.656903  -0.000000
   37  C  3  X   -0.424818   0.722564  -0.245571   1.651413  -0.000000
   38  C  3  Y    0.238907  -0.134957  -0.397422  -0.000006  -0.000000
   39  C  3  Z    0.000000  -0.000000  -0.000000   0.000000  -0.679629
   40  C  3 XX    0.003481   0.007491  -0.002543  -0.004773  -0.000000
   41  C  3 YY   -0.004088  -0.008512   0.002893  -0.018603  -0.000000
   42  C  3 ZZ    0.002903  -0.002695   0.000914   0.010503  -0.000000
   43  C  3 XY   -0.009230  -0.003448  -0.010153  -0.000001  -0.000000
   44  C  3 XZ    0.000000  -0.000000  -0.000000   0.000000  -0.016295
   45  C  3 YZ    0.000000  -0.000000  -0.000000   0.000000  -0.000000
   46  C  4  S    0.037816   0.015359  -0.077266   0.043955  -0.000000
   47  C  4  S   -0.013789  -0.017424   0.087637  -0.144873  -0.000000
   48  C  4  X   -0.102922  -0.056535   0.040750  -0.029688  -0.000000
   49  C  4  Y   -0.173399   0.009682   0.091968  -0.051424  -0.000000
   50  C  4  Z    0.000000  -0.000000  -0.000000   0.000000   0.236471
   51  C  4  S   -1.112533  -0.298021   1.499438   0.656899  -0.000000
   52  C  4  X   -0.300671  -0.430928   0.303422  -0.825689  -0.000000
   53  C  4  Y   -0.608991   0.076922   0.689192  -1.430163  -0.000000
   54  C  4  Z    0.000000  -0.000000  -0.000000   0.000000   0.679628
   55  C  4 XX   -0.004782  -0.006958  -0.006242   0.015145  -0.000000
   56  C  4 YY    0.003812   0.007169   0.005183   0.008230  -0.000000
   57  C  4 ZZ    0.004632   0.000554  -0.002791  -0.010503  -0.000000
   58  C  4 XY    0.005187  -0.006906   0.007243  -0.006914  -0.000000
   59  C  4 XZ    0.000000  -0.000000  -0.000000   0.000000   0.008148
   60  C  4 YZ    0.000000  -0.000000  -0.000000   0.000000   0.014112
   61  C  5  S    0.014116   0.059228   0.051934  -0.043961  -0.000000
   62  C  5  S   -0.005152  -0.067162  -0.058910   0.144880  -0.000000
   63  C  5  X    0.024098   0.069653  -0.002103  -0.029698  -0.000000
   64  C  5  Y   -0.072993  -0.048321  -0.078846   0.051424  -0.000000
   65  C  5  Z    0.000000  -0.000000  -0.000000   0.000000  -0.236472
   66  C  5  S   -0.415237  -1.149619  -1.007777  -0.656856  -0.000000
   67  C  5  X    0.371608   0.526436  -0.021701  -0.825773  -0.000000
   68  C  5  Y   -0.077614  -0.358421  -0.593591   1.430169  -0.000000
   69  C  5  Z    0.000000  -0.000000  -0.000000   0.000000  -0.679634
   70  C  5 XX    0.006893  -0.001721   0.009189  -0.015144  -0.000000
   71  C  5 YY   -0.007254   0.002529  -0.008476  -0.008232  -0.000000
   72  C  5 ZZ    0.001729   0.002141   0.001875   0.010503  -0.000000
   73  C  5 XY   -0.007721   0.009888   0.001540  -0.006916  -0.000000
   74  C  5 XZ    0.000000  -0.000000  -0.000000   0.000000   0.008147
   75  C  5 YZ    0.000000  -0.000000  -0.000000   0.000000  -0.014112
   76  C  6  S   -0.023702  -0.074584   0.025324   0.043972  -0.000000
   77  C  6  S    0.008648   0.084577  -0.028707  -0.144894  -0.000000
   78  C  6  X   -0.126370  -0.096554   0.032779   0.059399  -0.000000
   79  C  6  Y   -0.013193   0.017639   0.051939   0.000007  -0.000000
   80  C  6  Z    0.000000  -0.000000  -0.000000   0.000000   0.236473
   81  C  6  S    0.697234   1.447681  -0.491706   0.656617  -0.000000
   82  C  6  X   -0.424818  -0.722376   0.245122   1.651579  -0.000000
   83  C  6  Y    0.238909   0.134963   0.397422   0.000078  -0.000000
   84  C  6  Z    0.000000  -0.000000  -0.000000   0.000000   0.679639
   85  C  6 XX   -0.003481   0.007492  -0.002545   0.004772  -0.000000
   86  C  6 YY    0.004088  -0.008510   0.002888   0.018604  -0.000000
   87  C  6 ZZ   -0.002903  -0.002696   0.000917  -0.010502  -0.000000
   88  C  6 XY    0.009230  -0.003448  -0.010153  -0.000001  -0.000000
   89  C  6 XZ    0.000000  -0.000000  -0.000000   0.000000  -0.016295
   90  C  6 YZ    0.000000  -0.000000  -0.000000   0.000000  -0.000000
   91  H  7  S   -0.002945  -0.010586  -0.009286   0.023506  -0.000000
   92  H  7  S   -0.493432   1.072656   0.940180   1.396475  -0.000000
   93  H  8  S    0.004944   0.013331  -0.004525  -0.023508  -0.000000
   94  H  8  S    0.828488  -1.350748   0.458884  -1.396273  -0.000000
   95  H  9  S    0.007887  -0.002743   0.013808   0.023507  -0.000000
   96  H  9  S    1.321847   0.278171  -1.399257   1.396264  -0.000000
   97  H 10  S   -0.004945   0.013334  -0.004531   0.023505  -0.000000
   98  H 10  S   -0.828487  -1.350591   0.458492   1.396561  -0.000000
   99  H 11  S    0.002945  -0.010589  -0.009278  -0.023508  -0.000000
  100  H 11  S    0.493429   1.072491   0.940533  -1.396328  -0.000000
  101  H 12  S   -0.007887  -0.002747   0.013814  -0.023503  -0.000000
  102  H 12  S   -1.321837   0.278012  -1.398892  -1.396673  -0.000000

                     31         32         33         34         35
                    0.4718     0.4718     0.4971     0.4971     0.6594
                     A          A          A          A          A   
    1  C  1  S   -0.072480   0.000855  -0.000189   0.047465  -0.000000
    2  C  1  S    0.050941  -0.000601   0.000077  -0.019433   0.000005
    3  C  1  X    0.096430   0.011095   0.195100  -0.023927  -0.283909
    4  C  1  Y    0.166673  -0.009026  -0.112416  -0.043256   0.163915
    5  C  1  Z    0.000000   0.000000  -0.000000  -0.000000  -0.000000
    6  C  1  S    2.198750  -0.025941   0.008417  -2.111650   0.000019
    7  C  1  X    0.842153  -0.838537   1.891759  -0.119287   0.436092
    8  C  1  Y    1.481087   0.460936  -1.091089  -0.224250  -0.251758
    9  C  1  Z    0.000000   0.000000  -0.000000  -0.000000  -0.000000
   10  C  1 XX    0.009170   0.022949  -0.015241   0.012534  -0.035881
   11  C  1 YY    0.005077  -0.023117   0.015267  -0.019135   0.035882
   12  C  1 ZZ   -0.002304   0.000027  -0.000001   0.000378   0.000000
   13  C  1 XY   -0.003370   0.015411  -0.009999  -0.031833  -0.023922
   14  C  1 XZ    0.000000   0.000000  -0.000000  -0.000000  -0.000000
   15  C  1 YZ    0.000000   0.000000  -0.000000  -0.000000  -0.000000
   16  C  2  S    0.035501  -0.063194   0.041012   0.023899   0.000001
   17  C  2  S   -0.024953   0.044416  -0.016791  -0.009784   0.000006
   18  C  2  X    0.036509  -0.089928   0.119534  -0.156043   0.283906
   19  C  2  Y   -0.087827   0.141945   0.019704  -0.118824   0.163916
   20  C  2  Z    0.000000   0.000000  -0.000000  -0.000000  -0.000000
   21  C  2  S   -1.076980   1.917071  -1.824558  -1.063229  -0.000032
   22  C  2  X    1.139726  -0.336892   1.061845  -1.570129  -0.436207
   23  C  2  Y   -0.305556   1.520831   0.359756  -1.054108  -0.251866
   24  C  2  Z    0.000000   0.000000  -0.000000  -0.000000  -0.000000
   25  C  2 XX    0.015743   0.019053   0.018529  -0.006782  -0.035881
   26  C  2 YY   -0.022722  -0.006630  -0.024233   0.003458   0.035882
   27  C  2 ZZ    0.001128  -0.002009   0.000327   0.000190   0.000000
   28  C  2 XY   -0.015140  -0.004430   0.022371   0.024756   0.023921
   29  C  2 XZ    0.000000   0.000000  -0.000000  -0.000000  -0.000000
   30  C  2 YZ    0.000000   0.000000  -0.000000  -0.000000  -0.000000
   31  C  3  S    0.036982   0.062344   0.041197  -0.023567   0.000000
   32  C  3  S   -0.025994  -0.043817  -0.016866   0.009649   0.000007
   33  C  3  X    0.098249   0.165627   0.042890  -0.024536  -0.000000
   34  C  3  Y    0.012132  -0.007207  -0.111800  -0.195457  -0.327833
   35  C  3  Z    0.000000   0.000000  -0.000000  -0.000000  -0.000000
   36  C  3  S   -1.121863  -1.891320  -1.832827   1.048467   0.000015
   37  C  3  X    0.869270   1.465452   0.220245  -0.126019  -0.000010
   38  C  3  Y   -0.822961   0.488108  -1.084265  -1.895643   0.503537
   39  C  3  Z    0.000000   0.000000  -0.000000  -0.000000  -0.000000
   40  C  3 XX   -0.001823  -0.003074  -0.030462   0.017424  -0.000001
   41  C  3 YY   -0.005446  -0.009181   0.024733  -0.014146   0.000002
   42  C  3 ZZ    0.001175   0.001982   0.000328  -0.000188   0.000000
   43  C  3 XY   -0.026440   0.015683  -0.010056  -0.017580   0.047842
   44  C  3 XZ    0.000000   0.000000  -0.000000  -0.000000  -0.000000
   45  C  3 YZ    0.000000   0.000000  -0.000000  -0.000000  -0.000000
   46  C  4  S   -0.072479   0.000854   0.000194  -0.047466   0.000001
   47  C  4  S    0.050941  -0.000600  -0.000080   0.019433   0.000005
   48  C  4  X   -0.096414  -0.011075   0.195110  -0.023923  -0.283905
   49  C  4  Y   -0.166683   0.009013  -0.112409  -0.043257   0.163907
   50  C  4  Z    0.000000   0.000000  -0.000000  -0.000000  -0.000000
   51  C  4  S    2.198718  -0.025912  -0.008619   2.111662  -0.000028
   52  C  4  X   -0.842033   0.838711   1.891719  -0.119316   0.436228
   53  C  4  Y   -1.481159  -0.461035  -1.090921  -0.224265  -0.251825
   54  C  4  Z    0.000000   0.000000  -0.000000  -0.000000  -0.000000
   55  C  4 XX    0.009171   0.022950   0.015238  -0.012534   0.035882
   56  C  4 YY    0.005076  -0.023118  -0.015266   0.019136  -0.035882
   57  C  4 ZZ   -0.002304   0.000027   0.000002  -0.000378   0.000000
   58  C  4 XY   -0.003370   0.015413   0.009997   0.031833   0.023921
   59  C  4 XZ    0.000000   0.000000  -0.000000  -0.000000  -0.000000
   60  C  4 YZ    0.000000   0.000000  -0.000000  -0.000000  -0.000000
   61  C  5  S    0.035499  -0.063199  -0.041008  -0.023897  -0.000001
   62  C  5  S   -0.024953   0.044418   0.016789   0.009785   0.000001
   63  C  5  X   -0.036501   0.089938   0.119528  -0.156042   0.283912
   64  C  5  Y    0.087832  -0.141944   0.019711  -0.118822   0.163919
   65  C  5  Z    0.000000   0.000000  -0.000000  -0.000000  -0.000000
   66  C  5  S   -1.076863   1.917272   1.824411   1.063177   0.000028
   67  C  5  X   -1.139657   0.336963   1.061906  -1.570144  -0.436066
   68  C  5  Y    0.305577  -1.520800   0.359918  -1.054072  -0.251798
   69  C  5  Z    0.000000   0.000000  -0.000000  -0.000000  -0.000000
   70  C  5 XX    0.015742   0.019051  -0.018532   0.006782   0.035882
   71  C  5 YY   -0.022720  -0.006627   0.024235  -0.003458  -0.035881
   72  C  5 ZZ    0.001128  -0.002009  -0.000326  -0.000190   0.000000
   73  C  5 XY   -0.015141  -0.004432  -0.022370  -0.024756  -0.023920
   74  C  5 XZ    0.000000   0.000000  -0.000000  -0.000000  -0.000000
   75  C  5 YZ    0.000000   0.000000  -0.000000  -0.000000  -0.000000
   76  C  6  S    0.036978   0.062340  -0.041207   0.023566   0.000000
   77  C  6  S   -0.025992  -0.043815   0.016871  -0.009648   0.000002
   78  C  6  X   -0.098244  -0.165621   0.042911  -0.024534   0.000004
   79  C  6  Y   -0.012139   0.007189  -0.111796  -0.195457  -0.327828
   80  C  6  Z    0.000000   0.000000  -0.000000  -0.000000  -0.000000
   81  C  6  S   -1.121759  -1.891172   1.833181  -1.048429  -0.000025
   82  C  6  X   -0.869266  -1.465429   0.220469  -0.125991  -0.000020
   83  C  6  Y    0.822897  -0.488242  -1.084272  -1.895624   0.503700
   84  C  6  Z    0.000000   0.000000  -0.000000  -0.000000  -0.000000
   85  C  6 XX   -0.001821  -0.003072   0.030463  -0.017424   0.000001
   86  C  6 YY   -0.005448  -0.009183  -0.024731   0.014146  -0.000001
   87  C  6 ZZ    0.001175   0.001982  -0.000328   0.000188   0.000000
   88  C  6 XY   -0.026439   0.015684   0.010056   0.017579  -0.047842
   89  C  6 XZ    0.000000   0.000000  -0.000000  -0.000000  -0.000000
   90  C  6 YZ    0.000000   0.000000  -0.000000  -0.000000  -0.000000
   91  H  7  S   -0.006216   0.011051  -0.119370  -0.069561  -0.000001
   92  H  7  S   -0.490958   0.874002   0.080120   0.046698  -0.000003
   93  H  8  S   -0.006474  -0.010912  -0.119925   0.068596  -0.000001
   94  H  8  S   -0.511424  -0.862177   0.080568  -0.046052   0.000004
   95  H  9  S    0.012681  -0.000149  -0.000559   0.138156  -0.000001
   96  H  9  S    1.002394  -0.011811   0.000348  -0.092725  -0.000003
   97  H 10  S   -0.006466  -0.010904   0.119927  -0.068595   0.000000
   98  H 10  S   -0.511432  -0.862177  -0.080456   0.046068  -0.000003
   99  H 11  S   -0.006206   0.011064   0.119368   0.069563  -0.000000
  100  H 11  S   -0.490970   0.873974  -0.080172  -0.046725   0.000008
  101  H 12  S    0.012682  -0.000152   0.000557  -0.138155   0.000000
  102  H 12  S    1.002390  -0.011807  -0.000410   0.092733   0.000004

                     36         37         38         39         40
                    0.7387     0.7560     0.7785     0.7824     0.7875
                     A          A          A          A          A   
    1  C  1  S    0.002941   0.000000   0.000013   0.114898  -0.014478
    2  C  1  S    0.409371   0.000000  -0.000025  -0.066625  -0.360999
    3  C  1  X    0.107460   0.000000  -0.186742  -0.054626   0.027339
    4  C  1  Y    0.186130   0.000000   0.107802  -0.094653   0.047337
    5  C  1  Z    0.000000   0.429792  -0.000000   0.000000  -0.000000
    6  C  1  S   -0.388602   0.000000  -0.000466  -4.403524   0.516187
    7  C  1  X   -0.074902   0.000000  -3.461657  -1.653623  -0.099649
    8  C  1  Y   -0.129693   0.000000   1.998107  -2.865196  -0.173011
    9  C  1  Z    0.000000  -0.301621  -0.000000   0.000000  -0.000000
   10  C  1 XX    0.067582   0.000000   0.005921  -0.005632  -0.036795
   11  C  1 YY    0.012999   0.000000  -0.005927   0.000381  -0.081422
   12  C  1 ZZ    0.003269   0.000000  -0.000002  -0.023775   0.025580
   13  C  1 XY   -0.054580   0.000000   0.003948   0.006012  -0.044627
   14  C  1 XZ    0.000000   0.010739  -0.000000   0.000000  -0.000000
   15  C  1 YZ    0.000000   0.018601  -0.000000   0.000000  -0.000000
   16  C  2  S    0.002931   0.000000  -0.000015  -0.114908  -0.014415
   17  C  2  S    0.409371   0.000000  -0.000005   0.066396  -0.361042
   18  C  2  X   -0.107477   0.000000  -0.186749  -0.054618  -0.027297
   19  C  2  Y    0.186133   0.000000  -0.107798   0.094672   0.047288
   20  C  2  Z    0.000000   0.429792  -0.000000   0.000000  -0.000000
   21  C  2  S   -0.388237   0.000000   0.000558   4.403862   0.513747
   22  C  2  X    0.074746   0.000000  -3.461598  -1.653611   0.100911
   23  C  2  Y   -0.129473   0.000000  -1.998109   2.865147  -0.174376
   24  C  2  Z    0.000000  -0.301626  -0.000000   0.000000  -0.000000
   25  C  2 XX    0.067579   0.000000  -0.005923   0.005606  -0.036800
   26  C  2 YY    0.012999   0.000000   0.005918  -0.000428  -0.081422
   27  C  2 ZZ    0.003271   0.000000   0.000004   0.023790   0.025566
   28  C  2 XY    0.054580   0.000000   0.003950   0.006032   0.044623
   29  C  2 XZ    0.000000  -0.010739  -0.000000   0.000000  -0.000000
   30  C  2 YZ    0.000000   0.018602  -0.000000   0.000000  -0.000000
   31  C  3  S    0.002941   0.000000   0.000015   0.114901  -0.014480
   32  C  3  S    0.409365   0.000000  -0.000028  -0.066638  -0.361002
   33  C  3  X   -0.214923   0.000000   0.000018   0.109294  -0.054665
   34  C  3  Y    0.000003   0.000000  -0.215623   0.000009   0.000013
   35  C  3  Z    0.000000   0.429789  -0.000000   0.000000  -0.000000
   36  C  3  S   -0.388619   0.000000  -0.000448  -4.403519   0.516214
   37  C  3  X    0.149784   0.000000   0.000438   3.308151   0.199624
   38  C  3  Y   -0.000031   0.000000  -3.996875   0.000581   0.000204
   39  C  3  Z    0.000000  -0.301620  -0.000000   0.000000  -0.000000
   40  C  3 XX   -0.014291   0.000000  -0.000003   0.003388  -0.103737
   41  C  3 YY    0.094869   0.000000   0.000000  -0.008635  -0.014484
   42  C  3 ZZ    0.003269   0.000000  -0.000003  -0.023777   0.025581
   43  C  3 XY   -0.000002   0.000000  -0.007898   0.000000  -0.000000
   44  C  3 XZ    0.000000  -0.021478  -0.000000   0.000000  -0.000000
   45  C  3 YZ    0.000000  -0.000001  -0.000000   0.000000  -0.000000
   46  C  4  S    0.002930   0.000000  -0.000015  -0.114911  -0.014414
   47  C  4  S    0.409369   0.000000  -0.000014   0.066386  -0.361042
   48  C  4  X   -0.107464   0.000000   0.186751  -0.054667  -0.027312
   49  C  4  Y   -0.186143   0.000000  -0.107838  -0.094652  -0.047281
   50  C  4  Z    0.000000   0.429788  -0.000000   0.000000  -0.000000
   51  C  4  S   -0.388198   0.000000   0.000516   4.403776   0.513741
   52  C  4  X    0.074748   0.000000   3.461179  -1.654451   0.100570
   53  C  4  Y    0.129445   0.000000  -1.998730  -2.864608   0.174619
   54  C  4  Z    0.000000  -0.301617  -0.000000   0.000000  -0.000000
   55  C  4 XX    0.067581   0.000000   0.005920   0.005600  -0.036798
   56  C  4 YY    0.013000   0.000000  -0.005928  -0.000431  -0.081422
   57  C  4 ZZ    0.003271   0.000000   0.000005   0.023793   0.025566
   58  C  4 XY   -0.054581   0.000000   0.003946  -0.006031  -0.044623
   59  C  4 XZ    0.000000  -0.010739  -0.000000   0.000000  -0.000000
   60  C  4 YZ    0.000000  -0.018600  -0.000000   0.000000  -0.000000
   61  C  5  S    0.002941   0.000000   0.000011   0.114900  -0.014480
   62  C  5  S    0.409369   0.000000  -0.000032  -0.066640  -0.360999
   63  C  5  X    0.107460   0.000000   0.186720  -0.054683   0.027325
   64  C  5  Y   -0.186129   0.000000   0.107816   0.094623  -0.047344
   65  C  5  Z    0.000000   0.429792  -0.000000   0.000000  -0.000000
   66  C  5  S   -0.388637   0.000000  -0.000532  -4.403559   0.516193
   67  C  5  X   -0.074881   0.000000   3.461217  -1.654488  -0.099995
   68  C  5  Y    0.129728   0.000000   1.998829   2.864727   0.172760
   69  C  5  Z    0.000000  -0.301624  -0.000000   0.000000  -0.000000
   70  C  5 XX    0.067578   0.000000  -0.005928  -0.005631  -0.036796
   71  C  5 YY    0.013000   0.000000   0.005917   0.000378  -0.081423
   72  C  5 ZZ    0.003269   0.000000  -0.000000  -0.023776   0.025581
   73  C  5 XY    0.054580   0.000000   0.003950  -0.006014   0.044627
   74  C  5 XZ    0.000000   0.010739  -0.000000   0.000000  -0.000000
   75  C  5 YZ    0.000000  -0.018601  -0.000000   0.000000  -0.000000
   76  C  6  S    0.002931   0.000000  -0.000013  -0.114907  -0.014415
   77  C  6  S    0.409375   0.000000  -0.000017   0.066391  -0.361039
   78  C  6  X    0.214935   0.000000   0.000009   0.109292   0.054601
   79  C  6  Y    0.000001   0.000000   0.215628  -0.000025  -0.000018
   80  C  6  Z    0.000000   0.429794  -0.000000   0.000000  -0.000000
   81  C  6  S   -0.388237   0.000000   0.000535   4.403883   0.513735
   82  C  6  X   -0.149494   0.000000   0.000341   3.308100  -0.201472
   83  C  6  Y    0.000026   0.000000   3.996918  -0.000433  -0.000203
   84  C  6  Z    0.000000  -0.301627  -0.000000   0.000000  -0.000000
   85  C  6 XX   -0.014290   0.000000  -0.000006  -0.003443  -0.103734
   86  C  6 YY    0.094870   0.000000   0.000001   0.008624  -0.014487
   87  C  6 ZZ    0.003270   0.000000   0.000003   0.023789   0.025566
   88  C  6 XY   -0.000001   0.000000  -0.007895   0.000001  -0.000001
   89  C  6 XZ    0.000000   0.021479  -0.000000   0.000000  -0.000000
   90  C  6 YZ    0.000000   0.000000  -0.000000   0.000000  -0.000000
   91  H  7  S   -0.145029   0.000000  -0.000031  -0.161703  -0.330699
   92  H  7  S    0.222783   0.000000   0.000153   1.260791  -0.028771
   93  H  8  S   -0.145018   0.000000   0.000010   0.161538  -0.330791
   94  H  8  S    0.222679   0.000000  -0.000160  -1.260800  -0.028066
   95  H  9  S   -0.145030   0.000000  -0.000041  -0.161714  -0.330693
   96  H  9  S    0.222795   0.000000   0.000153   1.260770  -0.028799
   97  H 10  S   -0.145028   0.000000  -0.000034  -0.161700  -0.330698
   98  H 10  S    0.222788   0.000000   0.000144   1.260786  -0.028770
   99  H 11  S   -0.145017   0.000000  -0.000006   0.161532  -0.330792
  100  H 11  S    0.222679   0.000000  -0.000149  -1.260804  -0.028052
  101  H 12  S   -0.145016   0.000000   0.000004   0.161528  -0.330786
  102  H 12  S    0.222689   0.000000  -0.000150  -1.260786  -0.028087

                     41         42         43         44         45
                    0.8322     0.8322     0.8439     0.8439     0.8488
                     A          A          A          A          A   
    1  C  1  S    0.000000   0.000000  -0.005858   0.050790   0.079369
    2  C  1  S    0.000000   0.000000  -0.062063   0.536490  -0.043085
    3  C  1  X    0.000000   0.000000  -0.358568  -0.035805  -0.061182
    4  C  1  Y    0.000000   0.000000   0.205458   0.033722  -0.200139
    5  C  1  Z    0.062558  -0.611587  -0.000000  -0.000000  -0.000000
    6  C  1  S    0.000000   0.000000   0.094364  -0.816438  -0.250689
    7  C  1  X    0.000000   0.000000   0.205052   0.029768  -0.104264
    8  C  1  Y    0.000000   0.000000  -0.120006  -0.003598  -0.093692
    9  C  1  Z   -0.060542   0.591896  -0.000000  -0.000000  -0.000000
   10  C  1 XX    0.000000   0.000000   0.011667   0.121322   0.093375
   11  C  1 YY    0.000000   0.000000  -0.037757   0.104504   0.062580
   12  C  1 ZZ    0.000000   0.000000   0.005423  -0.046999  -0.065276
   13  C  1 XY    0.000000   0.000000   0.018155  -0.008992  -0.036422
   14  C  1 XZ    0.038850  -0.023435  -0.000000  -0.000000  -0.000000
   15  C  1 YZ   -0.016022  -0.049114  -0.000000  -0.000000  -0.000000
   16  C  2  S    0.000000   0.000000  -0.046932   0.020305  -0.033458
   17  C  2  S    0.000000   0.000000  -0.495635   0.214506   0.018312
   18  C  2  X    0.000000   0.000000  -0.137991  -0.332885  -0.453207
   19  C  2  Y    0.000000   0.000000  -0.091710  -0.186958  -0.162362
   20  C  2  Z    0.560936  -0.251615  -0.000000  -0.000000  -0.000000
   21  C  2  S    0.000000   0.000000   0.754396  -0.326541   0.105564
   22  C  2  X    0.000000   0.000000   0.087711   0.187830   0.350427
   23  C  2  Y    0.000000   0.000000   0.038223   0.113776   0.267288
   24  C  2  Z   -0.542875   0.243512  -0.000000  -0.000000  -0.000000
   25  C  2 XX    0.000000   0.000000  -0.119519   0.023916  -0.061447
   26  C  2 YY    0.000000   0.000000  -0.089124   0.066366  -0.004259
   27  C  2 ZZ    0.000000   0.000000   0.043426  -0.018788   0.027515
   28  C  2 XY    0.000000   0.000000  -0.003359   0.019983  -0.000622
   29  C  2 XZ   -0.010037   0.044246  -0.000000  -0.000000  -0.000000
   30  C  2 YZ    0.051660  -0.000226  -0.000000  -0.000000  -0.000000
   31  C  3  S    0.000000   0.000000  -0.041064  -0.030477  -0.045884
   32  C  3  S    0.000000   0.000000  -0.433576  -0.321990   0.025015
   33  C  3  X    0.000000   0.000000   0.009093   0.006811  -0.117927
   34  C  3  Y    0.000000   0.000000   0.248115  -0.334006   0.426605
   35  C  3  Z    0.498375   0.359975  -0.000000  -0.000000  -0.000000
   36  C  3  S    0.000000   0.000000   0.659897   0.490117   0.144599
   37  C  3  X    0.000000   0.000000   0.009451   0.006961  -0.076922
   38  C  3  Y    0.000000   0.000000  -0.142783   0.192102  -0.393775
   39  C  3  Z   -0.482327  -0.348383  -0.000000  -0.000000  -0.000000
   40  C  3 XX    0.000000   0.000000  -0.082415  -0.061190  -0.024824
   41  C  3 YY    0.000000   0.000000  -0.100126  -0.074328  -0.065321
   42  C  3 ZZ    0.000000   0.000000   0.037997   0.028201   0.037739
   43  C  3 XY    0.000000   0.000000   0.020286  -0.027309   0.025471
   44  C  3 XZ   -0.044208  -0.031931  -0.000000  -0.000000  -0.000000
   45  C  3 YZ   -0.024519   0.033944  -0.000000  -0.000000  -0.000000
   46  C  4  S    0.000000   0.000000   0.005891  -0.050798   0.079354
   47  C  4  S    0.000000   0.000000   0.062043  -0.536488  -0.043173
   48  C  4  X    0.000000   0.000000  -0.358586  -0.035700   0.061326
   49  C  4  Y    0.000000   0.000000   0.205568   0.033643   0.200054
   50  C  4  Z   -0.062560   0.611593  -0.000000  -0.000000  -0.000000
   51  C  4  S    0.000000   0.000000  -0.094457   0.816467  -0.250303
   52  C  4  X    0.000000   0.000000   0.205259   0.029599   0.104108
   53  C  4  Y    0.000000   0.000000  -0.120067  -0.003523   0.093560
   54  C  4  Z    0.060547  -0.591899  -0.000000  -0.000000  -0.000000
   55  C  4 XX    0.000000   0.000000  -0.011632  -0.121325   0.093365
   56  C  4 YY    0.000000   0.000000   0.037785  -0.104516   0.062551
   57  C  4 ZZ    0.000000   0.000000  -0.005450   0.047005  -0.065266
   58  C  4 XY    0.000000   0.000000  -0.018170   0.009000  -0.036412
   59  C  4 XZ    0.038849  -0.023435  -0.000000  -0.000000  -0.000000
   60  C  4 YZ   -0.016021  -0.049113  -0.000000  -0.000000  -0.000000
   61  C  5  S    0.000000   0.000000   0.046925  -0.020318  -0.033474
   62  C  5  S    0.000000   0.000000   0.495636  -0.214502   0.018067
   63  C  5  X    0.000000   0.000000  -0.137785  -0.332964   0.453221
   64  C  5  Y    0.000000   0.000000  -0.091610  -0.187044   0.162386
   65  C  5  Z   -0.560931   0.251622  -0.000000  -0.000000  -0.000000
   66  C  5  S    0.000000   0.000000  -0.754357   0.326585   0.105691
   67  C  5  X    0.000000   0.000000   0.087655   0.187879  -0.350511
   68  C  5  Y    0.000000   0.000000   0.038170   0.113764  -0.267119
   69  C  5  Z    0.542868  -0.243523  -0.000000  -0.000000  -0.000000
   70  C  5 XX    0.000000   0.000000   0.119501  -0.023928  -0.061501
   71  C  5 YY    0.000000   0.000000   0.089129  -0.066381  -0.004305
   72  C  5 ZZ    0.000000   0.000000  -0.043421   0.018799   0.027534
   73  C  5 XY    0.000000   0.000000   0.003362  -0.019993  -0.000627
   74  C  5 XZ   -0.010037   0.044247  -0.000000  -0.000000  -0.000000
   75  C  5 YZ    0.051660  -0.000226  -0.000000  -0.000000  -0.000000
   76  C  6  S    0.000000   0.000000   0.041039   0.030499  -0.045905
   77  C  6  S    0.000000   0.000000   0.433591   0.321976   0.024872
   78  C  6  X    0.000000   0.000000   0.009159   0.006753   0.117928
   79  C  6  Y    0.000000   0.000000   0.247970  -0.334031  -0.426747
   80  C  6  Z   -0.498371  -0.359975  -0.000000  -0.000000  -0.000000
   81  C  6  S    0.000000   0.000000  -0.659837  -0.490189   0.145105
   82  C  6  X    0.000000   0.000000   0.009486   0.006916   0.077113
   83  C  6  Y    0.000000   0.000000  -0.142513   0.192068   0.393856
   84  C  6  Z    0.482324   0.348387  -0.000000  -0.000000  -0.000000
   85  C  6 XX    0.000000   0.000000   0.082402   0.061203  -0.024854
   86  C  6 YY    0.000000   0.000000   0.100089   0.074356  -0.065355
   87  C  6 ZZ    0.000000   0.000000  -0.037976  -0.028219   0.037753
   88  C  6 XY    0.000000   0.000000  -0.020278   0.027312   0.025484
   89  C  6 XZ   -0.044208  -0.031932  -0.000000  -0.000000  -0.000000
   90  C  6 YZ   -0.024519   0.033944  -0.000000  -0.000000  -0.000000
   91  H  7  S    0.000000   0.000000  -0.247594   0.107134  -0.106504
   92  H  7  S    0.000000   0.000000  -0.127558   0.055196   0.046870
   93  H  8  S    0.000000   0.000000  -0.216625  -0.160805  -0.146089
   94  H  8  S    0.000000   0.000000  -0.111597  -0.082872   0.064162
   95  H  9  S    0.000000   0.000000   0.031049  -0.267996   0.252674
   96  H  9  S    0.000000   0.000000   0.015959  -0.138120  -0.110956
   97  H 10  S    0.000000   0.000000   0.216545   0.160878  -0.146174
   98  H 10  S    0.000000   0.000000   0.111629   0.082832   0.064201
   99  H 11  S    0.000000   0.000000   0.247576  -0.107174  -0.106610
  100  H 11  S    0.000000   0.000000   0.127565  -0.055174   0.046736
  101  H 12  S    0.000000   0.000000  -0.030942   0.267974   0.252726
  102  H 12  S    0.000000   0.000000  -0.016007   0.138136  -0.111001

                     46         47         48         49         50
                    0.8488     0.9139     0.9139     0.9956     1.1122
                     A          A          A          A          A   
    1  C  1  S   -0.007168   0.000000   0.000000   0.000000  -0.004585
    2  C  1  S    0.003968   0.000000   0.000000   0.000000   0.014697
    3  C  1  X    0.459409   0.000000   0.000000   0.000000  -0.014440
    4  C  1  Y   -0.243945   0.000000   0.000000   0.000000  -0.104930
    5  C  1  Z    0.000000  -0.650824   0.071838   0.478689   0.000000
    6  C  1  S    0.022482   0.000000   0.000000   0.000000   0.106946
    7  C  1  X   -0.409524   0.000000   0.000000   0.000000   0.284918
    8  C  1  Y    0.250292   0.000000   0.000000   0.000000   0.278547
    9  C  1  Z    0.000000   0.996618  -0.110008  -1.109601   0.000000
   10  C  1 XX   -0.031898   0.000000   0.000000   0.000000   0.071939
   11  C  1 YY    0.017828   0.000000   0.000000   0.000000  -0.065800
   12  C  1 ZZ    0.005895   0.000000   0.000000   0.000000   0.004784
   13  C  1 XY   -0.012356   0.000000   0.000000   0.000000   0.036125
   14  C  1 XZ    0.000000  -0.009973  -0.037402  -0.004627   0.000000
   15  C  1 YZ    0.000000  -0.007576   0.023066  -0.008016   0.000000
   16  C  2  S    0.072321   0.000000   0.000000   0.000000   0.028761
   17  C  2  S   -0.039245   0.000000   0.000000   0.000000  -0.092134
   18  C  2  X   -0.096969   0.000000   0.000000   0.000000  -0.320606
   19  C  2  Y   -0.270541   0.000000   0.000000   0.000000   0.525705
   20  C  2  Z    0.000000   0.263191  -0.599551  -0.478683   0.000000
   21  C  2  S   -0.228324   0.000000   0.000000   0.000000  -0.671603
   22  C  2  X    0.235811   0.000000   0.000000   0.000000   1.169998
   23  C  2  Y   -0.003961   0.000000   0.000000   0.000000  -2.106011
   24  C  2  Z    0.000000  -0.403031   0.918106   1.109595   0.000000
   25  C  2 XX    0.077193   0.000000   0.000000   0.000000  -0.018147
   26  C  2 YY    0.064925   0.000000   0.000000   0.000000  -0.020467
   27  C  2 ZZ   -0.059482   0.000000   0.000000   0.000000  -0.029966
   28  C  2 XY    0.038453   0.000000   0.000000   0.000000  -0.062049
   29  C  2 XZ    0.000000   0.032707   0.020702  -0.004627   0.000000
   30  C  2 YZ    0.000000   0.024276  -0.000330   0.008015   0.000000
   31  C  3  S   -0.065142   0.000000   0.000000   0.000000  -0.024187
   32  C  3  S    0.035386   0.000000   0.000000   0.000000   0.077487
   33  C  3  X   -0.167371   0.000000   0.000000   0.000000   0.517635
   34  C  3  Y   -0.300673   0.000000   0.000000   0.000000  -0.025178
   35  C  3  Z    0.000000   0.387627   0.527715   0.478680   0.000000
   36  C  3  S    0.205597   0.000000   0.000000   0.000000   0.564726
   37  C  3  X   -0.109295   0.000000   0.000000   0.000000  -2.025450
   38  C  3  Y    0.277361   0.000000   0.000000   0.000000  -0.067571
   39  C  3  Z    0.000000  -0.593584  -0.808099  -1.109586   0.000000
   40  C  3 XX   -0.035261   0.000000   0.000000   0.000000  -0.022434
   41  C  3 YY   -0.092742   0.000000   0.000000   0.000000   0.054891
   42  C  3 ZZ    0.053577   0.000000   0.000000   0.000000   0.025206
   43  C  3 XY   -0.017954   0.000000   0.000000   0.000000   0.054739
   44  C  3 XZ    0.000000  -0.006878  -0.009363   0.009255   0.000000
   45  C  3 YZ    0.000000  -0.035614   0.026161   0.000001   0.000000
   46  C  4  S   -0.007184   0.000000   0.000000   0.000000  -0.004576
   47  C  4  S    0.003831   0.000000   0.000000   0.000000   0.014642
   48  C  4  X   -0.459385   0.000000   0.000000   0.000000   0.014404
   49  C  4  Y    0.243933   0.000000   0.000000   0.000000   0.104804
   50  C  4  Z    0.000000  -0.650827   0.071841  -0.478681   0.000000
   51  C  4  S    0.022821   0.000000   0.000000   0.000000   0.107002
   52  C  4  X    0.409492   0.000000   0.000000   0.000000  -0.285055
   53  C  4  Y   -0.250366   0.000000   0.000000   0.000000  -0.278267
   54  C  4  Z    0.000000   0.996625  -0.110010   1.109587   0.000000
   55  C  4 XX   -0.031926   0.000000   0.000000   0.000000   0.071936
   56  C  4 YY    0.017796   0.000000   0.000000   0.000000  -0.065780
   57  C  4 ZZ    0.005908   0.000000   0.000000   0.000000   0.004761
   58  C  4 XY   -0.012352   0.000000   0.000000   0.000000   0.036173
   59  C  4 XZ    0.000000   0.009972   0.037402  -0.004627   0.000000
   60  C  4 YZ    0.000000   0.007576  -0.023065  -0.008014   0.000000
   61  C  5  S    0.072313   0.000000   0.000000   0.000000   0.028771
   62  C  5  S   -0.039357   0.000000   0.000000   0.000000  -0.092203
   63  C  5  X    0.096900   0.000000   0.000000   0.000000   0.320700
   64  C  5  Y    0.270506   0.000000   0.000000   0.000000  -0.525903
   65  C  5  Z    0.000000   0.263201  -0.599549   0.478683   0.000000
   66  C  5  S   -0.228235   0.000000   0.000000   0.000000  -0.671814
   67  C  5  X   -0.235822   0.000000   0.000000   0.000000  -1.170157
   68  C  5  Y    0.004055   0.000000   0.000000   0.000000   2.106568
   69  C  5  Z    0.000000  -0.403048   0.918102  -1.109593   0.000000
   70  C  5 XX    0.077174   0.000000   0.000000   0.000000  -0.018161
   71  C  5 YY    0.064899   0.000000   0.000000   0.000000  -0.020447
   72  C  5 ZZ   -0.059473   0.000000   0.000000   0.000000  -0.029989
   73  C  5 XY    0.038448   0.000000   0.000000   0.000000  -0.062102
   74  C  5 XZ    0.000000  -0.032707  -0.020702  -0.004627   0.000000
   75  C  5 YZ    0.000000  -0.024277   0.000331   0.008016   0.000000
   76  C  6  S   -0.065141   0.000000   0.000000   0.000000  -0.024184
   77  C  6  S    0.035417   0.000000   0.000000   0.000000   0.077475
   78  C  6  X    0.167373   0.000000   0.000000   0.000000  -0.517639
   79  C  6  Y    0.300565   0.000000   0.000000   0.000000   0.025122
   80  C  6  Z    0.000000   0.387624   0.527708  -0.478686   0.000000
   81  C  6  S    0.205667   0.000000   0.000000   0.000000   0.564827
   82  C  6  X    0.109381   0.000000   0.000000   0.000000   2.025563
   83  C  6  Y   -0.277331   0.000000   0.000000   0.000000   0.067988
   84  C  6  Z    0.000000  -0.593577  -0.808091   1.109602   0.000000
   85  C  6 XX   -0.035255   0.000000   0.000000   0.000000  -0.022422
   86  C  6 YY   -0.092734   0.000000   0.000000   0.000000   0.054889
   87  C  6 ZZ    0.053574   0.000000   0.000000   0.000000   0.025200
   88  C  6 XY   -0.017946   0.000000   0.000000   0.000000   0.054759
   89  C  6 XZ    0.000000   0.006878   0.009363   0.009255   0.000000
   90  C  6 YZ    0.000000   0.035615  -0.026161   0.000000   0.000000
   91  H  7  S    0.230294   0.000000   0.000000   0.000000   0.300633
   92  H  7  S   -0.101114   0.000000   0.000000   0.000000  -1.557989
   93  H  8  S   -0.207429   0.000000   0.000000   0.000000  -0.252836
   94  H  8  S    0.091088   0.000000   0.000000   0.000000   1.310092
   95  H  9  S   -0.022887   0.000000   0.000000   0.000000  -0.047814
   96  H  9  S    0.010034   0.000000   0.000000   0.000000   0.247954
   97  H 10  S   -0.207415   0.000000   0.000000   0.000000  -0.252811
   98  H 10  S    0.091129   0.000000   0.000000   0.000000   1.310102
   99  H 11  S    0.230245   0.000000   0.000000   0.000000   0.300792
  100  H 11  S   -0.101177   0.000000   0.000000   0.000000  -1.558496
  101  H 12  S   -0.022812   0.000000   0.000000   0.000000  -0.047944
  102  H 12  S    0.010036   0.000000   0.000000   0.000000   0.248259

                     51         52         53         54         55
                    1.1122     1.1185     1.1185     1.1236     1.1870
                     A          A          A          A          A   
    1  C  1  S    0.030574  -0.004593   0.028617  -0.003785   0.001038
    2  C  1  S   -0.097932   0.029775  -0.185515  -0.026318   0.127029
    3  C  1  X    0.332331   0.076818   0.272128   0.268502  -0.461157
    4  C  1  Y    0.563653  -0.138133   0.427796   0.465098   0.237931
    5  C  1  Z   -0.000000   0.000000  -0.000000   0.000000  -0.000000
    6  C  1  S   -0.713833   0.033159  -0.208431  -2.335777  -0.552033
    7  C  1  X   -1.266131  -0.821558  -0.686652  -1.589040   2.439135
    8  C  1  Y   -2.225306   0.674271  -0.852672  -2.752560  -1.349245
    9  C  1  Z   -0.000000   0.000000  -0.000000   0.000000  -0.000000
   10  C  1 XX   -0.035177  -0.033373  -0.055871  -0.061803   0.064904
   11  C  1 YY   -0.005845   0.027954   0.089529  -0.063426  -0.050207
   12  C  1 ZZ   -0.031862   0.010764  -0.067047   0.025512   0.004373
   13  C  1 XY    0.055384  -0.048728   0.127755  -0.001614   0.053491
   14  C  1 XZ   -0.000000   0.000000  -0.000000   0.000000  -0.000000
   15  C  1 YZ   -0.000000   0.000000  -0.000000   0.000000  -0.000000
   16  C  2  S   -0.011319  -0.027083   0.010332   0.003805   0.006242
   17  C  2  S    0.036262   0.175593  -0.066995   0.026212   0.763560
   18  C  2  X    0.088565   0.282268   0.019514   0.268380  -0.089624
   19  C  2  Y   -0.228564  -0.391008   0.222851  -0.464756  -0.221982
   20  C  2  Z   -0.000000   0.000000  -0.000000   0.000000  -0.000000
   21  C  2  S    0.264161   0.198586  -0.076531   2.335546  -3.318108
   22  C  2  X   -0.561605  -0.840734  -0.663117  -1.589074   0.724737
   23  C  2  Y    0.770156   0.699163  -0.836094   2.751662   0.772900
   24  C  2  Z   -0.000000   0.000000  -0.000000   0.000000  -0.000000
   25  C  2 XX    0.077991   0.061544   0.021227   0.061788  -0.012908
   26  C  2 YY   -0.062804  -0.093315  -0.009151   0.063470   0.101254
   27  C  2 ZZ    0.011796   0.063438  -0.024193  -0.025559   0.026285
   28  C  2 XY   -0.022813   0.115147  -0.073748  -0.001722  -0.052813
   29  C  2 XZ   -0.000000   0.000000  -0.000000   0.000000  -0.000000
   30  C  2 YZ   -0.000000   0.000000  -0.000000   0.000000  -0.000000
   31  C  3  S   -0.019253  -0.022484  -0.018287  -0.003801   0.005205
   32  C  3  S    0.061689   0.145776   0.118569  -0.026233   0.636537
   33  C  3  X    0.412110   0.398053   0.324103  -0.536736   0.122900
   34  C  3  Y    0.031612  -0.086646   0.106556   0.000060   0.329746
   35  C  3  Z   -0.000000   0.000000  -0.000000   0.000000  -0.000000
   36  C  3  S    0.449677   0.163974   0.134712  -2.335579  -2.766051
   37  C  3  X   -1.612595  -0.850246  -0.693501   3.177583  -0.255916
   38  C  3  Y    0.085058   0.670092  -0.824000  -0.000433  -1.772998
   39  C  3  Z   -0.000000   0.000000  -0.000000   0.000000  -0.000000
   40  C  3 XX   -0.017853  -0.117063  -0.095174  -0.064313   0.093638
   41  C  3 YY    0.043699   0.090630   0.073750  -0.060934  -0.019985
   42  C  3 ZZ    0.020064   0.052678   0.042831   0.025549   0.021910
   43  C  3 XY   -0.068775  -0.035168   0.043240   0.000017   0.053630
   44  C  3 XZ   -0.000000   0.000000  -0.000000   0.000000  -0.000000
   45  C  3 YZ   -0.000000   0.000000  -0.000000   0.000000  -0.000000
   46  C  4  S    0.030571   0.004597  -0.028621   0.003787  -0.001039
   47  C  4  S   -0.097921  -0.029789   0.185528   0.026314  -0.127056
   48  C  4  X   -0.332335   0.076792   0.272159   0.268467  -0.461193
   49  C  4  Y   -0.563661  -0.138212   0.427871   0.465039   0.237929
   50  C  4  Z   -0.000000   0.000000  -0.000000   0.000000  -0.000000
   51  C  4  S   -0.714032  -0.033221   0.208513   2.335655   0.552091
   52  C  4  X    1.266265  -0.821377  -0.686832  -1.588874   2.439339
   53  C  4  Y    2.225479   0.674509  -0.852933  -2.752330  -1.349315
   54  C  4  Z   -0.000000   0.000000  -0.000000   0.000000  -0.000000
   55  C  4 XX   -0.035181   0.033349   0.055894   0.061795  -0.064912
   56  C  4 YY   -0.005857  -0.027933  -0.089546   0.063428   0.050209
   57  C  4 ZZ   -0.031853  -0.010769   0.067050  -0.025514  -0.004373
   58  C  4 XY    0.055370   0.048722  -0.127750   0.001617  -0.053492
   59  C  4 XZ   -0.000000   0.000000  -0.000000   0.000000  -0.000000
   60  C  4 YZ   -0.000000   0.000000  -0.000000   0.000000  -0.000000
   61  C  5  S   -0.011321   0.027074  -0.010324  -0.003808  -0.006243
   62  C  5  S    0.036287  -0.175571   0.066961  -0.026192  -0.763576
   63  C  5  X   -0.088611   0.282179   0.019609   0.268346  -0.089646
   64  C  5  Y    0.228660  -0.390844   0.222686  -0.464694  -0.222006
   65  C  5  Z   -0.000000   0.000000  -0.000000   0.000000  -0.000000
   66  C  5  S    0.264407  -0.198345   0.076356  -2.335524   3.318142
   67  C  5  X    0.561764  -0.840359  -0.663478  -1.588922   0.724906
   68  C  5  Y   -0.770561   0.698492  -0.835467   2.751421   0.773006
   69  C  5  Z   -0.000000   0.000000  -0.000000   0.000000  -0.000000
   70  C  5 XX    0.078001  -0.061534  -0.021241  -0.061777   0.012911
   71  C  5 YY   -0.062803   0.093317   0.009151  -0.063477  -0.101259
   72  C  5 ZZ    0.011799  -0.063429   0.024184   0.025564  -0.026285
   73  C  5 XY   -0.022799  -0.115132   0.073733   0.001724   0.052811
   74  C  5 XZ   -0.000000   0.000000  -0.000000   0.000000  -0.000000
   75  C  5 YZ   -0.000000   0.000000  -0.000000   0.000000  -0.000000
   76  C  6  S   -0.019253   0.022489   0.018282   0.003801  -0.005203
   77  C  6  S    0.061699  -0.145806  -0.118555   0.026243  -0.636519
   78  C  6  X   -0.412051   0.398186   0.324001  -0.536760   0.122905
   79  C  6  Y   -0.031601  -0.086652   0.106562   0.000049   0.329713
   80  C  6  Z   -0.000000   0.000000  -0.000000   0.000000  -0.000000
   81  C  6  S    0.449412  -0.164100  -0.134598   2.335576   2.766018
   82  C  6  X    1.612269  -0.850754  -0.693101   3.177666  -0.255915
   83  C  6  Y   -0.085160   0.670067  -0.823978  -0.000416  -1.772779
   84  C  6  Z   -0.000000   0.000000  -0.000000   0.000000  -0.000000
   85  C  6 XX   -0.017857   0.117068   0.095170   0.064312  -0.093633
   86  C  6 YY    0.043693  -0.090646  -0.073740   0.060938   0.019986
   87  C  6 ZZ    0.020066  -0.052685  -0.042826  -0.025547  -0.021912
   88  C  6 XY   -0.068781   0.035147  -0.043218  -0.000028  -0.053626
   89  C  6 XZ   -0.000000   0.000000  -0.000000   0.000000  -0.000000
   90  C  6 YZ   -0.000000   0.000000  -0.000000   0.000000  -0.000000
   91  H  7  S   -0.118312  -0.399979   0.152608  -0.011777   0.027802
   92  H  7  S    0.613052   1.136206  -0.433984   1.380025   0.510592
   93  H  8  S   -0.201269  -0.332057  -0.270100   0.011840   0.023186
   94  H  8  S    1.043010   0.942653   0.767583  -1.380139   0.425650
   95  H  9  S    0.319558   0.067865  -0.422649  -0.012047  -0.004627
   96  H  9  S   -1.656037  -0.192527   1.199777   1.380696  -0.084981
   97  H 10  S   -0.201266   0.332118   0.270049  -0.011851  -0.023172
   98  H 10  S    1.042868  -0.942985  -0.767325   1.380201  -0.425653
   99  H 11  S   -0.118356   0.399892  -0.152518   0.011743  -0.027801
  100  H 11  S    0.613307  -1.135722   0.433508  -1.379823  -0.510599
  101  H 12  S    0.319594  -0.067824   0.422612   0.012077   0.004631
  102  H 12  S   -1.656007   0.192326  -1.199577  -1.380862   0.084935

                     56         57         58         59         60
                    1.1870     1.2030     1.2471     1.3029     1.3029
                     A          A          A          A          A   
    1  C  1  S    0.006609  -0.001432   0.000000  -0.041585   0.007460
    2  C  1  S    0.808341  -0.331572  -0.000012  -1.123607   0.201558
    3  C  1  X   -0.007489   0.207165   0.479355   0.033087   0.138758
    4  C  1  Y   -0.175918   0.358821  -0.276751  -0.000768  -0.083395
    5  C  1  Z    0.000000  -0.000000   0.000000  -0.000000  -0.000000
    6  C  1  S   -3.512660   0.831729   0.000079   4.329489  -0.776616
    7  C  1  X   -0.216840  -0.281271  -3.281736  -0.098197  -0.969354
    8  C  1  Y    0.500572  -0.487139   1.894691   0.226082   0.529253
    9  C  1  Z    0.000000  -0.000000   0.000000  -0.000000  -0.000000
   10  C  1 XX    0.000753  -0.040026  -0.072695  -0.043130  -0.050829
   11  C  1 YY    0.092775   0.023608   0.072695  -0.101656   0.076802
   12  C  1 ZZ    0.027827  -0.046454  -0.000001  -0.018093   0.003245
   13  C  1 XY    0.065521   0.063631  -0.048467  -0.085667  -0.023679
   14  C  1 XZ    0.000000  -0.000000   0.000000  -0.000000  -0.000000
   15  C  1 YZ    0.000000  -0.000000   0.000000  -0.000000  -0.000000
   16  C  2  S    0.002404  -0.001432  -0.000001   0.014332  -0.039744
   17  C  2  S    0.294140  -0.331540  -0.000031   0.387253  -1.073865
   18  C  2  X    0.452438  -0.207147   0.479334  -0.131230  -0.055902
   19  C  2  Y    0.195644   0.358764   0.276752  -0.082087  -0.014752
   20  C  2  Z    0.000000  -0.000000   0.000000  -0.000000  -0.000000
   21  C  2  S   -1.278260   0.831675   0.000150  -1.492128   4.137828
   22  C  2  X   -2.339118   0.281191  -3.281613   0.939086   0.259428
   23  C  2  Y   -1.213994  -0.486951  -1.894658   0.483785   0.311696
   24  C  2  Z    0.000000  -0.000000   0.000000  -0.000000  -0.000000
   25  C  2 XX    0.063615  -0.040021   0.072696  -0.042869  -0.051050
   26  C  2 YY   -0.029585   0.023609  -0.072701   0.092769  -0.087326
   27  C  2 ZZ    0.010127  -0.046451  -0.000000   0.006236  -0.017292
   28  C  2 XY   -0.066071  -0.063631  -0.048461   0.008966   0.088427
   29  C  2 XZ    0.000000  -0.000000   0.000000  -0.000000  -0.000000
   30  C  2 YZ    0.000000  -0.000000   0.000000  -0.000000  -0.000000
   31  C  3  S   -0.004203  -0.001432   0.000001   0.027253   0.032284
   32  C  3  S   -0.514199  -0.331534  -0.000005   0.736360   0.872299
   33  C  3  X   -0.099299  -0.414295  -0.000006   0.010407   0.012323
   34  C  3  Y    0.408178  -0.000012   0.553477   0.125656  -0.106081
   35  C  3  Z    0.000000  -0.000000   0.000000  -0.000000  -0.000000
   36  C  3  S    2.234515   0.831623   0.000063  -2.837274  -3.361130
   37  C  3  X    0.206743   0.562376   0.000036   0.096138   0.113899
   38  C  3  Y   -2.194700   0.000055  -3.789199  -0.857095   0.723583
   39  C  3  Z    0.000000  -0.000000   0.000000  -0.000000  -0.000000
   40  C  3 XX   -0.075637   0.055427  -0.000002   0.099136   0.117441
   41  C  3 YY    0.016147  -0.071839   0.000005  -0.004248  -0.005037
   42  C  3 ZZ   -0.017703  -0.046452  -0.000001   0.011857   0.014046
   43  C  3 XY    0.066385  -0.000003   0.096923   0.058732  -0.049580
   44  C  3 XZ    0.000000  -0.000000   0.000000  -0.000000  -0.000000
   45  C  3 YZ    0.000000  -0.000000   0.000000  -0.000000  -0.000000
   46  C  4  S   -0.006609  -0.001431  -0.000000  -0.041586   0.007459
   47  C  4  S   -0.808352  -0.331530   0.000008  -1.123619   0.201549
   48  C  4  X   -0.007504  -0.207150  -0.479325  -0.033075  -0.138746
   49  C  4  Y   -0.175923  -0.358810   0.276736   0.000768   0.083396
   50  C  4  Z    0.000000  -0.000000   0.000000  -0.000000  -0.000000
   51  C  4  S    3.512690   0.831559  -0.000069   4.329478  -0.776629
   52  C  4  X   -0.216774   0.281220   3.281550   0.098113   0.969284
   53  C  4  Y    0.500526   0.487127  -1.894579  -0.226041  -0.529227
   54  C  4  Z    0.000000  -0.000000   0.000000  -0.000000  -0.000000
   55  C  4 XX   -0.000755  -0.040025  -0.072694  -0.043130  -0.050829
   56  C  4 YY   -0.092774   0.023612   0.072693  -0.101659   0.076800
   57  C  4 ZZ   -0.027828  -0.046452   0.000001  -0.018092   0.003246
   58  C  4 XY   -0.065519   0.063634  -0.048461  -0.085665  -0.023677
   59  C  4 XZ    0.000000  -0.000000   0.000000  -0.000000  -0.000000
   60  C  4 YZ    0.000000  -0.000000   0.000000  -0.000000  -0.000000
   61  C  5  S   -0.002404  -0.001433   0.000000   0.014333  -0.039743
   62  C  5  S   -0.294154  -0.331513   0.000022   0.387269  -1.073854
   63  C  5  X    0.452437   0.207131  -0.479340   0.131232   0.055905
   64  C  5  Y    0.195623  -0.358768  -0.276743   0.082097   0.014755
   65  C  5  Z    0.000000  -0.000000   0.000000  -0.000000  -0.000000
   66  C  5  S    1.278295   0.831559  -0.000132  -1.492229   4.137738
   67  C  5  X   -2.339064  -0.281115   3.281624  -0.939102  -0.259439
   68  C  5  Y   -1.213936   0.486979   1.894650  -0.483841  -0.311716
   69  C  5  Z    0.000000  -0.000000   0.000000  -0.000000  -0.000000
   70  C  5 XX   -0.063615  -0.040017   0.072694  -0.042871  -0.051052
   71  C  5 YY    0.029584   0.023606  -0.072692   0.092774  -0.087323
   72  C  5 ZZ   -0.010128  -0.046449   0.000001   0.006236  -0.017292
   73  C  5 XY    0.066068  -0.063633  -0.048466   0.008963   0.088425
   74  C  5 XZ    0.000000  -0.000000   0.000000  -0.000000  -0.000000
   75  C  5 YZ    0.000000  -0.000000   0.000000  -0.000000  -0.000000
   76  C  6  S    0.004203  -0.001432   0.000000   0.027253   0.032284
   77  C  6  S    0.514183  -0.331528   0.000017   0.736362   0.872308
   78  C  6  X   -0.099282   0.414270   0.000004  -0.010413  -0.012325
   79  C  6  Y    0.408166  -0.000011  -0.553507  -0.125660   0.106076
   80  C  6  Z    0.000000  -0.000000   0.000000  -0.000000  -0.000000
   81  C  6  S   -2.234478   0.831612  -0.000092  -2.837359  -3.361186
   82  C  6  X    0.206710  -0.562323  -0.000041  -0.096145  -0.113909
   83  C  6  Y   -2.194625   0.000065   3.789393   0.857148  -0.723531
   84  C  6  Z    0.000000  -0.000000   0.000000  -0.000000  -0.000000
   85  C  6 XX    0.075638   0.055424   0.000001   0.099137   0.117442
   86  C  6 YY   -0.016149  -0.071836   0.000001  -0.004252  -0.005038
   87  C  6 ZZ    0.017701  -0.046450   0.000001   0.011858   0.014046
   88  C  6 XY   -0.066382  -0.000000   0.096931   0.058733  -0.049579
   89  C  6 XZ    0.000000  -0.000000   0.000000  -0.000000  -0.000000
   90  C  6 YZ    0.000000  -0.000000   0.000000  -0.000000  -0.000000
   91  H  7  S    0.010709   0.263256  -0.000005   0.098481  -0.273119
   92  H  7  S    0.196675  -0.806070  -0.000018   0.156199  -0.433142
   93  H  8  S   -0.018713   0.263268   0.000001   0.187278   0.221860
   94  H  8  S   -0.343861  -0.806117  -0.000005   0.297017   0.351834
   95  H  9  S   -0.029429   0.263275  -0.000000  -0.285776   0.051262
   96  H  9  S   -0.540608  -0.806173   0.000005  -0.453213   0.081301
   97  H 10  S    0.018721   0.263254   0.000001   0.187276   0.221853
   98  H 10  S    0.343825  -0.806066   0.000005   0.297021   0.351836
   99  H 11  S   -0.010700   0.263256   0.000004   0.098499  -0.273110
  100  H 11  S   -0.196711  -0.806045   0.000019   0.156214  -0.433127
  101  H 12  S    0.029440   0.263278  -0.000001  -0.285771   0.051259
  102  H 12  S    0.540584  -0.806218  -0.000004  -0.453215   0.081294

                     61         62         63         64         65
                    1.3891     1.3891     1.4612     1.5180     1.6620
                     A          A          A          A          A   
    1  C  1  S   -0.000047  -0.000203  -0.015753  -0.000000   0.000000
    2  C  1  S   -0.087046  -0.381704  -0.606381  -0.000000   0.000000
    3  C  1  X   -0.005578  -0.237260  -0.074897  -0.000000   0.000000
    4  C  1  Y   -0.116187  -0.386665  -0.129730  -0.000000   0.000000
    5  C  1  Z   -0.000000   0.000000  -0.000000   0.000001   0.063079
    6  C  1  S   -0.317745  -1.393518   1.465018  -0.000000   0.000000
    7  C  1  X    1.403797   0.466659  -0.313150  -0.000000   0.000000
    8  C  1  Y   -0.416619   1.457764  -0.542409  -0.000000   0.000000
    9  C  1  Z   -0.000000   0.000000  -0.000000  -0.000001   0.008333
   10  C  1 XX   -0.065746  -0.066281  -0.024181  -0.000000   0.000000
   11  C  1 YY    0.047621  -0.013198  -0.065408  -0.000000   0.000000
   12  C  1 ZZ    0.008618   0.037794   0.006998  -0.000000   0.000000
   13  C  1 XY   -0.014979   0.082345  -0.041228  -0.000000   0.000000
   14  C  1 XZ   -0.000000   0.000000  -0.000000   0.293181  -0.184896
   15  C  1 YZ   -0.000000   0.000000  -0.000000  -0.169265  -0.320254
   16  C  2  S   -0.000198  -0.000062   0.015752  -0.000000   0.000000
   17  C  2  S   -0.374068  -0.115475   0.606385  -0.000000   0.000000
   18  C  2  X    0.236178   0.023383  -0.074896  -0.000000   0.000000
   19  C  2  Y   -0.376842  -0.144914   0.129737  -0.000000   0.000000
   20  C  2  Z   -0.000000   0.000000  -0.000000   0.000000   0.063083
   21  C  2  S   -1.365758  -0.421517  -1.464998  -0.000000   0.000000
   22  C  2  X   -0.359872  -1.434851  -0.313142  -0.000000   0.000000
   23  C  2  Y    1.484950  -0.305868   0.542395  -0.000000   0.000000
   24  C  2  Z   -0.000000   0.000000  -0.000000   0.000000   0.008322
   25  C  2 XX   -0.061151  -0.070541   0.024182  -0.000000   0.000000
   26  C  2 YY   -0.016738   0.046497   0.065406  -0.000000   0.000000
   27  C  2 ZZ    0.037040   0.011434  -0.006996  -0.000000   0.000000
   28  C  2 XY   -0.083240   0.008748  -0.041226  -0.000000   0.000000
   29  C  2 XZ   -0.000000   0.000000  -0.000000  -0.293180   0.184896
   30  C  2 YZ   -0.000000   0.000000  -0.000000  -0.169265  -0.320251
   31  C  3  S   -0.000152   0.000142  -0.015752  -0.000000   0.000000
   32  C  3  S   -0.287025   0.266227  -0.606374  -0.000000   0.000000
   33  C  3  X    0.341034  -0.316300   0.149802  -0.000000   0.000000
   34  C  3  Y   -0.037144  -0.040054   0.000010  -0.000000   0.000000
   35  C  3  Z   -0.000000   0.000000  -0.000000   0.000002   0.063080
   36  C  3  S   -1.047982   0.971931   1.464915  -0.000000   0.000000
   37  C  3  X   -1.124856   1.043319   0.626308  -0.000000   0.000000
   38  C  3  Y   -0.993218  -1.070824  -0.000021  -0.000000   0.000000
   39  C  3  Z   -0.000000   0.000000  -0.000000  -0.000002   0.008330
   40  C  3 XX    0.026542  -0.024615  -0.086019  -0.000000   0.000000
   41  C  3 YY   -0.086308   0.080049  -0.003570  -0.000000   0.000000
   42  C  3 ZZ    0.028422  -0.026361   0.006998  -0.000000   0.000000
   43  C  3 XY   -0.044757  -0.048261   0.000003  -0.000000   0.000000
   44  C  3 XZ   -0.000000   0.000000  -0.000000  -0.000006   0.369794
   45  C  3 YZ   -0.000000   0.000000  -0.000000   0.338535   0.000003
   46  C  4  S    0.000046   0.000203   0.015752  -0.000000   0.000000
   47  C  4  S    0.087030   0.381707   0.606354  -0.000000   0.000000
   48  C  4  X   -0.005583  -0.237262  -0.074902  -0.000000   0.000000
   49  C  4  Y   -0.116184  -0.386667  -0.129724  -0.000000   0.000000
   50  C  4  Z   -0.000000   0.000000  -0.000000   0.000002   0.063079
   51  C  4  S    0.317799   1.393509  -1.464909  -0.000000   0.000000
   52  C  4  X    1.403764   0.466674  -0.313143  -0.000000   0.000000
   53  C  4  Y   -0.416595   1.457770  -0.542448  -0.000000   0.000000
   54  C  4  Z   -0.000000   0.000000  -0.000000  -0.000001   0.008327
   55  C  4 XX    0.065745   0.066281   0.024179  -0.000000   0.000000
   56  C  4 YY   -0.047622   0.013201   0.065407  -0.000000   0.000000
   57  C  4 ZZ   -0.008619  -0.037795  -0.006998  -0.000000   0.000000
   58  C  4 XY    0.014978  -0.082348   0.041225  -0.000000   0.000000
   59  C  4 XZ   -0.000000   0.000000  -0.000000   0.293180   0.184895
   60  C  4 YZ   -0.000000   0.000000  -0.000000  -0.169268   0.320251
   61  C  5  S    0.000199   0.000061  -0.015752  -0.000000   0.000000
   62  C  5  S    0.374068   0.115460  -0.606389  -0.000000   0.000000
   63  C  5  X    0.236182   0.023387  -0.074895  -0.000000   0.000000
   64  C  5  Y   -0.376844  -0.144908   0.129731  -0.000000   0.000000
   65  C  5  Z   -0.000000   0.000000  -0.000000  -0.000001   0.063081
   66  C  5  S    1.365726   0.421586   1.464992  -0.000000   0.000000
   67  C  5  X   -0.359932  -1.434862  -0.313173  -0.000000   0.000000
   68  C  5  Y    1.484933  -0.305911   0.542396  -0.000000   0.000000
   69  C  5  Z   -0.000000   0.000000  -0.000000   0.000002   0.008329
   70  C  5 XX    0.061149   0.070539  -0.024185  -0.000000   0.000000
   71  C  5 YY    0.016739  -0.046498  -0.065405  -0.000000   0.000000
   72  C  5 ZZ   -0.037041  -0.011433   0.006997  -0.000000   0.000000
   73  C  5 XY    0.083239  -0.008746   0.041228  -0.000000   0.000000
   74  C  5 XZ   -0.000000   0.000000  -0.000000  -0.293178  -0.184900
   75  C  5 YZ   -0.000000   0.000000  -0.000000  -0.169268   0.320249
   76  C  6  S    0.000152  -0.000141   0.015753  -0.000000   0.000000
   77  C  6  S    0.287039  -0.266212   0.606395  -0.000000   0.000000
   78  C  6  X    0.341035  -0.316301   0.149805  -0.000000   0.000000
   79  C  6  Y   -0.037153  -0.040063   0.000006  -0.000000   0.000000
   80  C  6  Z   -0.000000   0.000000  -0.000000   0.000000   0.063083
   81  C  6  S    1.047960  -0.972002  -1.465018  -0.000000   0.000000
   82  C  6  X   -1.124842   1.043315   0.626295  -0.000000   0.000000
   83  C  6  Y   -0.993239  -1.070839   0.000001  -0.000000   0.000000
   84  C  6  Z   -0.000000   0.000000  -0.000000  -0.000000   0.008322
   85  C  6 XX   -0.026540   0.024617   0.086021  -0.000000   0.000000
   86  C  6 YY    0.086307  -0.080048   0.003569  -0.000000   0.000000
   87  C  6 ZZ   -0.028422   0.026361  -0.006996  -0.000000   0.000000
   88  C  6 XY    0.044759   0.048260   0.000000  -0.000000   0.000000
   89  C  6 XZ   -0.000000   0.000000  -0.000000  -0.000004  -0.369794
   90  C  6 YZ   -0.000000   0.000000  -0.000000   0.338534  -0.000002
   91  H  7  S    0.445002   0.137368   0.453520  -0.000000   0.000000
   92  H  7  S    0.691114   0.213340   0.351166  -0.000000   0.000000
   93  H  8  S    0.341464  -0.316705  -0.453513  -0.000000   0.000000
   94  H  8  S    0.530314  -0.491856  -0.351164  -0.000000   0.000000
   95  H  9  S   -0.103544  -0.454063   0.453524  -0.000000   0.000000
   96  H  9  S   -0.160812  -0.705193   0.351182  -0.000000   0.000000
   97  H 10  S   -0.341458   0.316710   0.453520  -0.000000   0.000000
   98  H 10  S   -0.530306   0.491862   0.351168  -0.000000   0.000000
   99  H 11  S   -0.445000  -0.137370  -0.453519  -0.000000   0.000000
  100  H 11  S   -0.691112  -0.213332  -0.351169  -0.000000   0.000000
  101  H 12  S    0.103537   0.454060  -0.453524  -0.000000   0.000000
  102  H 12  S    0.160803   0.705188  -0.351180  -0.000000   0.000000

                     66         67         68         69         70
                    1.6972     1.6972     1.7669     1.7669     1.7957
                     A          A          A          A          A   
    1  C  1  S   -0.003827  -0.034068   0.000000  -0.000000  -0.000000
    2  C  1  S   -0.080979  -0.720900   0.000000  -0.000000  -0.000000
    3  C  1  X    0.233347  -0.134372   0.000000  -0.000000  -0.000000
    4  C  1  Y   -0.162431  -0.169096   0.000000  -0.000000  -0.000000
    5  C  1  Z   -0.000000  -0.000000   0.015861  -0.116724  -0.012508
    6  C  1  S    0.333723   2.971094   0.000000  -0.000000  -0.000000
    7  C  1  X    0.166912   1.902271   0.000000  -0.000000  -0.000000
    8  C  1  Y    0.395768   3.282929   0.000000  -0.000000  -0.000000
    9  C  1  Z   -0.000000  -0.000000   0.011455  -0.084286   0.005618
   10  C  1 XX    0.065639  -0.055041   0.000000  -0.000000  -0.000000
   11  C  1 YY   -0.069902   0.017076   0.000000  -0.000000  -0.000000
   12  C  1 ZZ    0.000575   0.005129   0.000000  -0.000000  -0.000000
   13  C  1 XY    0.053596   0.050868   0.000000  -0.000000  -0.000000
   14  C  1 XZ   -0.000000  -0.000000   0.371457   0.176756   0.116618
   15  C  1 YZ   -0.000000  -0.000000  -0.253362   0.184286  -0.015823
   16  C  2  S    0.031417   0.013719   0.000000  -0.000000  -0.000000
   17  C  2  S    0.664805   0.290313   0.000000  -0.000000  -0.000000
   18  C  2  X   -0.197308   0.183236   0.000000  -0.000000  -0.000000
   19  C  2  Y    0.113567   0.205130   0.000000  -0.000000  -0.000000
   20  C  2  Z   -0.000000  -0.000000  -0.109033   0.044636  -0.132625
   21  C  2  S   -2.739944  -1.196474   0.000000  -0.000000  -0.000000
   22  C  2  X    1.768077   0.721400   0.000000  -0.000000  -0.000000
   23  C  2  Y   -3.019503  -1.347879   0.000000  -0.000000  -0.000000
   24  C  2  Z   -0.000000  -0.000000  -0.078714   0.032219   0.059607
   25  C  2 XX    0.071976  -0.046450   0.000000  -0.000000  -0.000000
   26  C  2 YY   -0.036958   0.061745   0.000000  -0.000000  -0.000000
   27  C  2 ZZ   -0.004738  -0.002074   0.000000  -0.000000  -0.000000
   28  C  2 XY    0.032764   0.066227   0.000000  -0.000000  -0.000000
   29  C  2 XZ   -0.000000  -0.000000  -0.264277  -0.315239  -0.196335
   30  C  2 YZ   -0.000000  -0.000000   0.114909  -0.291511   0.432812
   31  C  3  S   -0.027590   0.020349   0.000000  -0.000000  -0.000000
   32  C  3  S   -0.583823   0.430590   0.000000  -0.000000  -0.000000
   33  C  3  X    0.173011  -0.127596   0.000000  -0.000000  -0.000000
   34  C  3  Y   -0.169210  -0.229434   0.000000  -0.000000  -0.000000
   35  C  3  Z   -0.000000  -0.000000   0.093159   0.072104  -0.120124
   36  C  3  S    2.406208  -1.774606   0.000000  -0.000000  -0.000000
   37  C  3  X   -3.072783   2.266246   0.000000  -0.000000  -0.000000
   38  C  3  Y    0.031794   0.043185   0.000000  -0.000000  -0.000000
   39  C  3  Z   -0.000000  -0.000000   0.067264   0.052059   0.053982
   40  C  3 XX    0.030120  -0.022211   0.000000  -0.000000  -0.000000
   41  C  3 YY   -0.060871   0.044895   0.000000  -0.000000  -0.000000
   42  C  3 ZZ    0.004158  -0.003074   0.000000  -0.000000  -0.000000
   43  C  3 XY    0.056486   0.076586   0.000000  -0.000000  -0.000000
   44  C  3 XZ   -0.000000  -0.000000   0.197927   0.153177  -0.428405
   45  C  3 YZ   -0.000000  -0.000000  -0.276958   0.357841  -0.062535
   46  C  4  S   -0.003827  -0.034068   0.000000  -0.000000  -0.000000
   47  C  4  S   -0.080981  -0.720903   0.000000  -0.000000  -0.000000
   48  C  4  X   -0.233351   0.134369   0.000000  -0.000000  -0.000000
   49  C  4  Y    0.162432   0.169095   0.000000  -0.000000  -0.000000
   50  C  4  Z   -0.000000  -0.000000   0.015867  -0.116743   0.012504
   51  C  4  S    0.333795   2.971128   0.000000  -0.000000  -0.000000
   52  C  4  X   -0.166926  -1.902265   0.000000  -0.000000  -0.000000
   53  C  4  Y   -0.395775  -3.282918   0.000000  -0.000000  -0.000000
   54  C  4  Z   -0.000000  -0.000000   0.011454  -0.084276  -0.005622
   55  C  4 XX    0.065639  -0.055040   0.000000  -0.000000  -0.000000
   56  C  4 YY   -0.069903   0.017074   0.000000  -0.000000  -0.000000
   57  C  4 ZZ    0.000574   0.005129   0.000000  -0.000000  -0.000000
   58  C  4 XY    0.053597   0.050867   0.000000  -0.000000  -0.000000
   59  C  4 XZ   -0.000000  -0.000000  -0.371440  -0.176792   0.116635
   60  C  4 YZ   -0.000000  -0.000000   0.253383  -0.184345  -0.015843
   61  C  5  S    0.031417   0.013720   0.000000  -0.000000  -0.000000
   62  C  5  S    0.664805   0.290325   0.000000  -0.000000  -0.000000
   63  C  5  X    0.197311  -0.183234   0.000000  -0.000000  -0.000000
   64  C  5  Y   -0.113569  -0.205137   0.000000  -0.000000  -0.000000
   65  C  5  Z   -0.000000  -0.000000  -0.109022   0.044623   0.132632
   66  C  5  S   -2.739975  -1.196518   0.000000  -0.000000  -0.000000
   67  C  5  X   -1.768131  -0.721446   0.000000  -0.000000  -0.000000
   68  C  5  Y    3.019482   1.347890   0.000000  -0.000000  -0.000000
   69  C  5  Z   -0.000000  -0.000000  -0.078720   0.032222  -0.059601
   70  C  5 XX    0.071975  -0.046449   0.000000  -0.000000  -0.000000
   71  C  5 YY   -0.036957   0.061745   0.000000  -0.000000  -0.000000
   72  C  5 ZZ   -0.004739  -0.002075   0.000000  -0.000000  -0.000000
   73  C  5 XY    0.032763   0.066226   0.000000  -0.000000  -0.000000
   74  C  5 XZ   -0.000000  -0.000000   0.264256   0.315269  -0.196343
   75  C  5 YZ   -0.000000  -0.000000  -0.114877   0.291482   0.432826
   76  C  6  S   -0.027590   0.020348   0.000000  -0.000000  -0.000000
   77  C  6  S   -0.583827   0.430580   0.000000  -0.000000  -0.000000
   78  C  6  X   -0.173012   0.127592   0.000000  -0.000000  -0.000000
   79  C  6  Y    0.169206   0.229430   0.000000  -0.000000  -0.000000
   80  C  6  Z   -0.000000  -0.000000   0.093165   0.072111   0.120121
   81  C  6  S    2.406202  -1.774597   0.000000  -0.000000  -0.000000
   82  C  6  X    3.072802  -2.266237   0.000000  -0.000000  -0.000000
   83  C  6  Y   -0.031818  -0.043209   0.000000  -0.000000  -0.000000
   84  C  6  Z   -0.000000  -0.000000   0.067262   0.052059  -0.053985
   85  C  6 XX    0.030122  -0.022211   0.000000  -0.000000  -0.000000
   86  C  6 YY   -0.060870   0.044895   0.000000  -0.000000  -0.000000
   87  C  6 ZZ    0.004157  -0.003073   0.000000  -0.000000  -0.000000
   88  C  6 XY    0.056486   0.076587   0.000000  -0.000000  -0.000000
   89  C  6 XZ   -0.000000  -0.000000  -0.197937  -0.153204  -0.428397
   90  C  6 YZ   -0.000000  -0.000000   0.276950  -0.357826  -0.062562
   91  H  7  S   -0.618738  -0.270206   0.000000  -0.000000  -0.000000
   92  H  7  S   -1.028761  -0.449260   0.000000  -0.000000  -0.000000
   93  H  8  S    0.543364  -0.400748   0.000000  -0.000000  -0.000000
   94  H  8  S    0.903441  -0.666312   0.000000  -0.000000  -0.000000
   95  H  9  S    0.075364   0.670935   0.000000  -0.000000  -0.000000
   96  H  9  S    0.125310   1.115564   0.000000  -0.000000  -0.000000
   97  H 10  S    0.543367  -0.400748   0.000000  -0.000000  -0.000000
   98  H 10  S    0.903447  -0.666310   0.000000  -0.000000  -0.000000
   99  H 11  S   -0.618737  -0.270209   0.000000  -0.000000  -0.000000
  100  H 11  S   -1.028751  -0.449265   0.000000  -0.000000  -0.000000
  101  H 12  S    0.075368   0.670941   0.000000  -0.000000  -0.000000
  102  H 12  S    0.125310   1.115570   0.000000  -0.000000  -0.000000

                     71         72         73         74         75
                    1.7957     2.0485     2.0932     2.1616     2.1701
                     A          A          A          A          A   
    1  C  1  S    0.000000   0.016685  -0.000001   0.078692  -0.007946
    2  C  1  S    0.000000   0.213053  -0.000001   1.231570   0.189540
    3  C  1  X    0.000000   0.043914   0.194115   0.029506  -0.006830
    4  C  1  Y    0.000000   0.076040  -0.112077   0.051114  -0.011822
    5  C  1  Z   -0.145934   0.000000   0.000000   0.000000   0.000000
    6  C  1  S    0.000000  -0.305326  -0.000030 -11.198135   0.043189
    7  C  1  X    0.000000   0.023649  -0.229019  -3.531974  -0.101863
    8  C  1  Y    0.000000   0.040991   0.132191  -6.117711  -0.176469
    9  C  1  Z    0.065575   0.000000   0.000000   0.000000   0.000000
   10  C  1 XX    0.000000  -0.152995  -0.275965  -0.020817  -0.128057
   11  C  1 YY    0.000000  -0.152550   0.275977  -0.041254   0.196828
   12  C  1 ZZ    0.000000   0.432478  -0.000018  -0.060855  -0.014849
   13  C  1 XY    0.000000   0.000418  -0.183980  -0.020430   0.324890
   14  C  1 XZ    0.252131   0.000000   0.000000   0.000000   0.000000
   15  C  1 YZ    0.455389   0.000000   0.000000   0.000000   0.000000
   16  C  2  S    0.000000   0.016678  -0.000001  -0.078692  -0.007976
   17  C  2  S    0.000000   0.212940  -0.000008  -1.231671   0.189039
   18  C  2  X    0.000000  -0.043909  -0.194112   0.029513   0.006845
   19  C  2  Y    0.000000   0.076043  -0.112075  -0.051102  -0.011850
   20  C  2  Z   -0.062126   0.000000   0.000000   0.000000   0.000000
   21  C  2  S    0.000000  -0.304239   0.000045  11.198101   0.047616
   22  C  2  X    0.000000  -0.023947   0.228984  -3.532110   0.100462
   23  C  2  Y    0.000000   0.041496   0.132232   6.117806  -0.173997
   24  C  2  Z    0.027926   0.000000   0.000000   0.000000   0.000000
   25  C  2 XX    0.000000  -0.152994  -0.275965   0.020887  -0.128054
   26  C  2 YY    0.000000  -0.152538   0.275973   0.041172   0.196847
   27  C  2 ZZ    0.000000   0.432474  -0.000014   0.060827  -0.014823
   28  C  2 XY    0.000000  -0.000422   0.183976  -0.020287  -0.324905
   29  C  2 XZ   -0.196540   0.000000   0.000000   0.000000   0.000000
   30  C  2 YZ    0.142379   0.000000   0.000000   0.000000   0.000000
   31  C  3  S    0.000000   0.016686  -0.000001   0.078691  -0.007946
   32  C  3  S    0.000000   0.213069   0.000004   1.231563   0.189526
   33  C  3  X    0.000000  -0.087813   0.000001  -0.059010   0.013658
   34  C  3  Y    0.000000   0.000004   0.224149   0.000013   0.000004
   35  C  3  Z    0.083795   0.000000   0.000000   0.000000   0.000000
   36  C  3  S    0.000000  -0.305404  -0.000042 -11.198066   0.043233
   37  C  3  X    0.000000  -0.047212   0.000026   7.064064   0.203714
   38  C  3  Y    0.000000  -0.000015  -0.264441   0.000071   0.000004
   39  C  3  Z   -0.037655   0.000000   0.000000   0.000000   0.000000
   40  C  3 XX    0.000000  -0.152343  -0.000001  -0.051444   0.359283
   41  C  3 YY    0.000000  -0.153199   0.000005  -0.010610  -0.290514
   42  C  3 ZZ    0.000000   0.432474  -0.000011  -0.060870  -0.014848
   43  C  3 XY    0.000000   0.000020   0.367962  -0.000005   0.000006
   44  C  3 XZ    0.298844   0.000000   0.000000   0.000000   0.000000
   45  C  3 YZ   -0.089628   0.000000   0.000000   0.000000   0.000000
   46  C  4  S    0.000000   0.016676  -0.000001  -0.078691  -0.007977
   47  C  4  S    0.000000   0.212922  -0.000009  -1.231675   0.189064
   48  C  4  X    0.000000  -0.043895   0.194119   0.029507   0.006835
   49  C  4  Y    0.000000  -0.076048  -0.112069   0.051122   0.011844
   50  C  4  Z    0.145916   0.000000   0.000000   0.000000   0.000000
   51  C  4  S    0.000000  -0.304143   0.000051  11.198012   0.047573
   52  C  4  X    0.000000  -0.024029  -0.228998  -3.532038   0.100494
   53  C  4  Y    0.000000  -0.041607   0.132184  -6.117742   0.174068
   54  C  4  Z   -0.065584   0.000000   0.000000   0.000000   0.000000
   55  C  4 XX    0.000000  -0.152972   0.275973   0.020883  -0.128063
   56  C  4 YY    0.000000  -0.152565  -0.275963   0.041190   0.196854
   57  C  4 ZZ    0.000000   0.432480  -0.000016   0.060815  -0.014820
   58  C  4 XY    0.000000   0.000439   0.183989   0.020309   0.324902
   59  C  4 XZ    0.252124   0.000000   0.000000   0.000000   0.000000
   60  C  4 YZ    0.455354   0.000000   0.000000   0.000000   0.000000
   61  C  5  S    0.000000   0.016686  -0.000000   0.078691  -0.007946
   62  C  5  S    0.000000   0.213074  -0.000006   1.231558   0.189514
   63  C  5  X    0.000000   0.043898  -0.194119   0.029516  -0.006826
   64  C  5  Y    0.000000  -0.076054  -0.112069  -0.051094   0.011837
   65  C  5  Z    0.062138   0.000000   0.000000   0.000000   0.000000
   66  C  5  S    0.000000  -0.305423  -0.000018 -11.198105   0.043253
   67  C  5  X    0.000000   0.023602   0.228997  -3.532100  -0.101859
   68  C  5  Y    0.000000  -0.040853   0.132251   6.117642   0.176393
   69  C  5  Z   -0.027921   0.000000   0.000000   0.000000   0.000000
   70  C  5 XX    0.000000  -0.152976   0.275979  -0.020820  -0.128066
   71  C  5 YY    0.000000  -0.152566  -0.275959  -0.041233   0.196842
   72  C  5 ZZ    0.000000   0.432474  -0.000024  -0.060872  -0.014855
   73  C  5 XY    0.000000  -0.000430  -0.183980   0.020409  -0.324902
   74  C  5 XZ   -0.196513   0.000000   0.000000   0.000000   0.000000
   75  C  5 YZ    0.142424   0.000000   0.000000   0.000000   0.000000
   76  C  6  S    0.000000   0.016678  -0.000001  -0.078692  -0.007976
   77  C  6  S    0.000000   0.212937  -0.000014  -1.231669   0.189040
   78  C  6  X    0.000000   0.087809  -0.000008  -0.059012  -0.013685
   79  C  6  Y    0.000000   0.000014   0.224143   0.000008  -0.000003
   80  C  6  Z   -0.083791   0.000000   0.000000   0.000000   0.000000
   81  C  6  S    0.000000  -0.304220   0.000064  11.198160   0.047615
   82  C  6  X    0.000000   0.047942   0.000022   7.064226  -0.200931
   83  C  6  Y    0.000000  -0.000004  -0.264420   0.000031  -0.000009
   84  C  6  Z    0.037660   0.000000   0.000000   0.000000   0.000000
   85  C  6 XX    0.000000  -0.152339   0.000020   0.051321   0.359304
   86  C  6 YY    0.000000  -0.153194  -0.000002   0.010742  -0.290507
   87  C  6 ZZ    0.000000   0.432476  -0.000023   0.060825  -0.014827
   88  C  6 XY    0.000000  -0.000010  -0.367956   0.000003   0.000016
   89  C  6 XZ    0.298832   0.000000   0.000000   0.000000   0.000000
   90  C  6 YZ   -0.089687   0.000000   0.000000   0.000000   0.000000
   91  H  7  S    0.000000   0.144602  -0.000004   0.469381  -0.358039
   92  H  7  S    0.000000   0.103373   0.000003   1.553650  -0.010883
   93  H  8  S    0.000000   0.144559  -0.000006  -0.469237  -0.358231
   94  H  8  S    0.000000   0.103230  -0.000006  -1.553620  -0.011505
   95  H  9  S    0.000000   0.144626  -0.000007   0.469342  -0.358054
   96  H  9  S    0.000000   0.103420   0.000001   1.553642  -0.010910
   97  H 10  S    0.000000   0.144611  -0.000013   0.469372  -0.358046
   98  H 10  S    0.000000   0.103383   0.000001   1.553643  -0.010887
   99  H 11  S    0.000000   0.144556  -0.000018  -0.469247  -0.358233
  100  H 11  S    0.000000   0.103217  -0.000010  -1.553610  -0.011494
  101  H 12  S    0.000000   0.144582  -0.000013  -0.469213  -0.358232
  102  H 12  S    0.000000   0.103269  -0.000007  -1.553636  -0.011521

                     76         77         78         79         80
                    2.3055     2.3055     2.3965     2.3965     2.4688
                     A          A          A          A          A   
    1  C  1  S   -0.001687   0.013233   0.000113  -0.001421  -0.000000
    2  C  1  S   -0.023314   0.182847   0.039198  -0.489348  -0.000000
    3  C  1  X    0.171306   0.115205  -0.074271  -0.178288  -0.000000
    4  C  1  Y   -0.125962   0.145631   0.074568  -0.292514  -0.000000
    5  C  1  Z    0.000000   0.000000  -0.000000   0.000000  -0.055498
    6  C  1  S    0.115205  -0.903869  -0.045884   0.573145  -0.000000
    7  C  1  X   -0.629042  -0.011535   0.203860   0.254687  -0.000000
    8  C  1  Y    0.343198   0.162774  -0.161483   0.399887  -0.000000
    9  C  1  Z    0.000000   0.000000  -0.000000   0.000000  -0.305664
   10  C  1 XX    0.010912   0.035022   0.398797  -0.005260  -0.000000
   11  C  1 YY    0.032032  -0.371708  -0.404381   0.075097  -0.000000
   12  C  1 ZZ   -0.038676   0.303203   0.016070  -0.200712  -0.000000
   13  C  1 XY    0.061476  -0.401580   0.252350   0.164950  -0.000000
   14  C  1 XZ    0.000000   0.000000  -0.000000   0.000000  -0.263765
   15  C  1 YZ    0.000000   0.000000  -0.000000   0.000000  -0.524126
   16  C  2  S   -0.012307   0.005158  -0.001286   0.000612  -0.000000
   17  C  2  S   -0.170090   0.071299  -0.443382   0.210707  -0.000000
   18  C  2  X    0.156716   0.134385   0.193053   0.005996  -0.000000
   19  C  2  Y   -0.106793   0.160241  -0.246845   0.173736  -0.000000
   20  C  2  Z    0.000000   0.000000  -0.000000   0.000000   0.022780
   21  C  2  S    0.840944  -0.352642   0.519239  -0.246765  -0.000000
   22  C  2  X   -0.178995  -0.602981  -0.310494  -0.099871  -0.000000
   23  C  2  Y   -0.248095  -0.287750   0.316283  -0.293174  -0.000000
   24  C  2  Z    0.000000   0.000000  -0.000000   0.000000   0.125466
   25  C  2 XX   -0.036660  -0.001161   0.136933   0.374575  -0.000000
   26  C  2 YY    0.349712  -0.129994  -0.073673  -0.404636  -0.000000
   27  C  2 ZZ   -0.281923   0.118109  -0.181848   0.086420  -0.000000
   28  C  2 XY   -0.370668   0.166310  -0.243898  -0.177200  -0.000000
   29  C  2 XZ    0.000000   0.000000  -0.000000   0.000000  -0.378864
   30  C  2 YZ    0.000000   0.000000  -0.000000   0.000000   0.058909
   31  C  3  S   -0.010617  -0.008082   0.001174   0.000809  -0.000000
   32  C  3  S   -0.146713  -0.111692   0.404202   0.278640  -0.000000
   33  C  3  X    0.147394   0.112153  -0.282870  -0.195005  -0.000000
   34  C  3  Y   -0.129007   0.169542   0.057861  -0.083935  -0.000000
   35  C  3  Z    0.000000   0.000000  -0.000000   0.000000   0.032717
   36  C  3  S    0.725302   0.552418  -0.473383  -0.326337  -0.000000
   37  C  3  X    0.108340   0.082123   0.391234   0.269701  -0.000000
   38  C  3  Y    0.437289  -0.574675  -0.146481   0.212515  -0.000000
   39  C  3  Z    0.000000   0.000000  -0.000000   0.000000   0.180201
   40  C  3 XX    0.458259   0.348701  -0.147610  -0.101754  -0.000000
   41  C  3 YY   -0.188150  -0.143167   0.089906   0.061987  -0.000000
   42  C  3 ZZ   -0.243248  -0.185088   0.165805   0.114293  -0.000000
   43  C  3 XY    0.012329  -0.016193   0.300510  -0.435911  -0.000000
   44  C  3 XZ    0.000000   0.000000  -0.000000   0.000000  -0.345347
   45  C  3 YZ    0.000000   0.000000  -0.000000   0.000000   0.264997
   46  C  4  S    0.001687  -0.013232   0.000115  -0.001419  -0.000000
   47  C  4  S    0.023312  -0.182882   0.039239  -0.489329  -0.000000
   48  C  4  X    0.171308   0.115218   0.074279   0.178278  -0.000000
   49  C  4  Y   -0.125962   0.145652  -0.074585   0.292504  -0.000000
   50  C  4  Z    0.000000   0.000000  -0.000000   0.000000  -0.055494
   51  C  4  S   -0.115186   0.903889  -0.045981   0.573057  -0.000000
   52  C  4  X   -0.629032  -0.011555  -0.203783  -0.254685  -0.000000
   53  C  4  Y    0.343182   0.162749   0.161533  -0.399886  -0.000000
   54  C  4  Z    0.000000   0.000000  -0.000000   0.000000  -0.305667
   55  C  4 XX   -0.010893  -0.035028   0.398774  -0.005252  -0.000000
   56  C  4 YY   -0.032047   0.371714  -0.404383   0.075069  -0.000000
   57  C  4 ZZ    0.038671  -0.303215   0.016101  -0.200692  -0.000000
   58  C  4 XY   -0.061459   0.401587   0.252374   0.164920  -0.000000
   59  C  4 XZ    0.000000   0.000000  -0.000000   0.000000   0.263754
   60  C  4 YZ    0.000000   0.000000  -0.000000   0.000000   0.524139
   61  C  5  S    0.012307  -0.005159  -0.001288   0.000612  -0.000000
   62  C  5  S    0.170077  -0.071290  -0.443416   0.210714  -0.000000
   63  C  5  X    0.156704   0.134387  -0.193035  -0.006011  -0.000000
   64  C  5  Y   -0.106779   0.160227   0.246871  -0.173747  -0.000000
   65  C  5  Z    0.000000   0.000000  -0.000000   0.000000   0.022779
   66  C  5  S   -0.840931   0.352652   0.519359  -0.246783  -0.000000
   67  C  5  X   -0.178965  -0.602977   0.310542   0.099914  -0.000000
   68  C  5  Y   -0.248078  -0.287746  -0.316321   0.293195  -0.000000
   69  C  5  Z    0.000000   0.000000  -0.000000   0.000000   0.125471
   70  C  5 XX    0.036664   0.001193   0.136936   0.374577  -0.000000
   71  C  5 YY   -0.349714   0.129965  -0.073648  -0.404651  -0.000000
   72  C  5 ZZ    0.281914  -0.118108  -0.181877   0.086432  -0.000000
   73  C  5 XY    0.370653  -0.166317  -0.243906  -0.177189  -0.000000
   74  C  5 XZ    0.000000   0.000000  -0.000000   0.000000   0.378851
   75  C  5 YZ    0.000000   0.000000  -0.000000   0.000000  -0.058923
   76  C  6  S    0.010617   0.008082   0.001171   0.000809  -0.000000
   77  C  6  S    0.146735   0.111707   0.404150   0.278642  -0.000000
   78  C  6  X    0.147409   0.112167   0.282848   0.195001  -0.000000
   79  C  6  Y   -0.129010   0.169548  -0.057848   0.083922  -0.000000
   80  C  6  Z    0.000000   0.000000  -0.000000   0.000000   0.032715
   81  C  6  S   -0.725323  -0.552442  -0.473348  -0.326323  -0.000000
   82  C  6  X    0.108322   0.082101  -0.391208  -0.269719  -0.000000
   83  C  6  Y    0.437321  -0.574710   0.146466  -0.212472  -0.000000
   84  C  6  Z    0.000000   0.000000  -0.000000   0.000000   0.180194
   85  C  6 XX   -0.458254  -0.348712  -0.147595  -0.101724  -0.000000
   86  C  6 YY    0.188149   0.143176   0.089944   0.061970  -0.000000
   87  C  6 ZZ    0.243250   0.185092   0.165743   0.114283  -0.000000
   88  C  6 XY   -0.012316   0.016158   0.300511  -0.435910  -0.000000
   89  C  6 XZ    0.000000   0.000000  -0.000000   0.000000   0.345336
   90  C  6 YZ    0.000000   0.000000  -0.000000   0.000000  -0.265001
   91  H  7  S   -0.524095   0.219555  -0.142611   0.067765  -0.000000
   92  H  7  S    0.035023  -0.014726   0.123572  -0.058728  -0.000000
   93  H  8  S   -0.452209  -0.344071   0.130014   0.089634  -0.000000
   94  H  8  S    0.030179   0.023035  -0.112656  -0.077662  -0.000000
   95  H  9  S    0.071899  -0.563691   0.012611  -0.157386  -0.000000
   96  H  9  S   -0.004779   0.037589  -0.010941   0.136384  -0.000000
   97  H 10  S    0.452206   0.344081   0.130003   0.089607  -0.000000
   98  H 10  S   -0.030182  -0.023044  -0.112643  -0.077661  -0.000000
   99  H 11  S    0.524077  -0.219546  -0.142630   0.067776  -0.000000
  100  H 11  S   -0.035026   0.014724   0.123590  -0.058728  -0.000000
  101  H 12  S   -0.071903   0.563684   0.012626  -0.157425  -0.000000
  102  H 12  S    0.004781  -0.037581  -0.010922   0.136389  -0.000000

                     81         82         83         84         85
                    2.4688     2.4758     2.4758     2.6393     2.6393
                     A          A          A          A          A   
    1  C  1  S    0.000000  -0.034923  -0.022504  -0.000000   0.000000
    2  C  1  S    0.000000  -0.423047  -0.272607  -0.000000   0.000000
    3  C  1  X    0.000000   0.089639  -0.302721  -0.000000   0.000000
    4  C  1  Y    0.000000  -0.223807   0.063906  -0.000000   0.000000
    5  C  1  Z   -0.005738  -0.000000   0.000000  -0.011443   0.107996
    6  C  1  S    0.000000   0.574922   0.370490  -0.000000   0.000000
    7  C  1  X    0.000000   0.359633   0.076171  -0.000000   0.000000
    8  C  1  Y    0.000000   0.459337   0.385829  -0.000000   0.000000
    9  C  1  Z   -0.031600  -0.000000   0.000000  -0.008403   0.079052
   10  C  1 XX    0.000000   0.264564   0.207087  -0.000000   0.000000
   11  C  1 YY    0.000000   0.066897   0.006505  -0.000000   0.000000
   12  C  1 ZZ    0.000000  -0.457745  -0.294966  -0.000000   0.000000
   13  C  1 XY    0.000000  -0.242136  -0.131631  -0.000000   0.000000
   14  C  1 XZ   -0.312095  -0.000000   0.000000   0.582744   0.155116
   15  C  1 YZ    0.110259  -0.000000   0.000000  -0.359084   0.123725
   16  C  2  S    0.000000   0.002028  -0.041496  -0.000000   0.000000
   17  C  2  S    0.000000   0.024587  -0.502667  -0.000000   0.000000
   18  C  2  X    0.000000   0.298320   0.103313  -0.000000   0.000000
   19  C  2  Y    0.000000   0.182245  -0.144790  -0.000000   0.000000
   20  C  2  Z    0.050930  -0.000000   0.000000  -0.099234   0.044078
   21  C  2  S    0.000000  -0.033409   0.683130  -0.000000   0.000000
   22  C  2  X    0.000000   0.147400  -0.336780  -0.000000   0.000000
   23  C  2  Y    0.000000   0.046344   0.598042  -0.000000   0.000000
   24  C  2  Z    0.280513  -0.000000   0.000000  -0.072505   0.032113
   25  C  2 XX    0.000000   0.014392   0.335681  -0.000000   0.000000
   26  C  2 YY    0.000000  -0.033640   0.058175  -0.000000   0.000000
   27  C  2 ZZ    0.000000   0.026588  -0.543908  -0.000000   0.000000
   28  C  2 XY    0.000000  -0.033883   0.273504  -0.000000   0.000000
   29  C  2 XZ   -0.153115  -0.000000   0.000000   0.326686   0.506943
   30  C  2 YZ    0.532355  -0.000000   0.000000  -0.007174   0.379512
   31  C  3  S    0.000000   0.036949  -0.018992  -0.000000   0.000000
   32  C  3  S    0.000000   0.447582  -0.230058  -0.000000   0.000000
   33  C  3  X    0.000000  -0.157641   0.081024  -0.000000   0.000000
   34  C  3  Y    0.000000   0.159943   0.311198  -0.000000   0.000000
   35  C  3  Z   -0.045195  -0.000000   0.000000  -0.087799  -0.063888
   36  C  3  S    0.000000  -0.608273   0.312680  -0.000000   0.000000
   37  C  3  X    0.000000   0.611121  -0.314127  -0.000000   0.000000
   38  C  3  Y    0.000000   0.069047   0.134299  -0.000000   0.000000
   39  C  3  Z   -0.248917  -0.000000   0.000000  -0.064213  -0.046592
   40  C  3 XX    0.000000   0.069086  -0.035509  -0.000000   0.000000
   41  C  3 YY    0.000000  -0.419793   0.215766  -0.000000   0.000000
   42  C  3 ZZ    0.000000   0.484313  -0.248932  -0.000000   0.000000
   43  C  3 XY    0.000000   0.018732   0.036479  -0.000000   0.000000
   44  C  3 XZ    0.477036  -0.000000   0.000000   0.150098   0.109042
   45  C  3 YZ    0.191838  -0.000000   0.000000  -0.404872   0.556316
   46  C  4  S    0.000000   0.034922   0.022504  -0.000000   0.000000
   47  C  4  S    0.000000   0.423035   0.272614  -0.000000   0.000000
   48  C  4  X    0.000000   0.089635  -0.302717  -0.000000   0.000000
   49  C  4  Y    0.000000  -0.223797   0.063901  -0.000000   0.000000
   50  C  4  Z   -0.005736  -0.000000   0.000000   0.011439  -0.107995
   51  C  4  S    0.000000  -0.574919  -0.370508  -0.000000   0.000000
   52  C  4  X    0.000000   0.359647   0.076179  -0.000000   0.000000
   53  C  4  Y    0.000000   0.459313   0.385835  -0.000000   0.000000
   54  C  4  Z   -0.031596  -0.000000   0.000000   0.008396  -0.079058
   55  C  4 XX    0.000000  -0.264607  -0.207082  -0.000000   0.000000
   56  C  4 YY    0.000000  -0.066859  -0.006515  -0.000000   0.000000
   57  C  4 ZZ    0.000000   0.457742   0.294973  -0.000000   0.000000
   58  C  4 XY    0.000000   0.242111   0.131639  -0.000000   0.000000
   59  C  4 XZ    0.312110  -0.000000   0.000000   0.582748   0.155124
   60  C  4 YZ   -0.110273  -0.000000   0.000000  -0.359071   0.123738
   61  C  5  S    0.000000  -0.002028   0.041495  -0.000000   0.000000
   62  C  5  S    0.000000  -0.024543   0.502654  -0.000000   0.000000
   63  C  5  X    0.000000   0.298340   0.103313  -0.000000   0.000000
   64  C  5  Y    0.000000   0.182220  -0.144781  -0.000000   0.000000
   65  C  5  Z    0.050933  -0.000000   0.000000   0.099232  -0.044076
   66  C  5  S    0.000000   0.033356  -0.683100  -0.000000   0.000000
   67  C  5  X    0.000000   0.147373  -0.336769  -0.000000   0.000000
   68  C  5  Y    0.000000   0.046388   0.598031  -0.000000   0.000000
   69  C  5  Z    0.280513  -0.000000   0.000000   0.072500  -0.032106
   70  C  5 XX    0.000000  -0.014394  -0.335673  -0.000000   0.000000
   71  C  5 YY    0.000000   0.033639  -0.058176  -0.000000   0.000000
   72  C  5 ZZ    0.000000  -0.026573   0.543899  -0.000000   0.000000
   73  C  5 XY    0.000000   0.033914  -0.273509  -0.000000   0.000000
   74  C  5 XZ    0.153118  -0.000000   0.000000   0.326699   0.506948
   75  C  5 YZ   -0.532355  -0.000000   0.000000  -0.007150   0.379504
   76  C  6  S    0.000000  -0.036951   0.018992  -0.000000   0.000000
   77  C  6  S    0.000000  -0.447623   0.230064  -0.000000   0.000000
   78  C  6  X    0.000000  -0.157666   0.081029  -0.000000   0.000000
   79  C  6  Y    0.000000   0.159947   0.311197  -0.000000   0.000000
   80  C  6  Z   -0.045194  -0.000000   0.000000   0.087805   0.063888
   81  C  6  S    0.000000   0.608334  -0.312694  -0.000000   0.000000
   82  C  6  X    0.000000   0.611161  -0.314131  -0.000000   0.000000
   83  C  6  Y    0.000000   0.069026   0.134302  -0.000000   0.000000
   84  C  6  Z   -0.248913  -0.000000   0.000000   0.064225   0.046591
   85  C  6 XX    0.000000  -0.069074   0.035501  -0.000000   0.000000
   86  C  6 YY    0.000000   0.419788  -0.215761  -0.000000   0.000000
   87  C  6 ZZ    0.000000  -0.484334   0.248935  -0.000000   0.000000
   88  C  6 XY    0.000000  -0.018769  -0.036470  -0.000000   0.000000
   89  C  6 XZ   -0.477028  -0.000000   0.000000   0.150122   0.109042
   90  C  6 YZ   -0.191857  -0.000000   0.000000  -0.404864   0.556304
   91  H  7  S    0.000000  -0.004693   0.096208  -0.000000   0.000000
   92  H  7  S    0.000000  -0.009886   0.202115  -0.000000   0.000000
   93  H  8  S    0.000000  -0.085678   0.044037  -0.000000   0.000000
   94  H  8  S    0.000000  -0.179974   0.092507  -0.000000   0.000000
   95  H  9  S    0.000000  -0.080970  -0.052181  -0.000000   0.000000
   96  H  9  S    0.000000  -0.170103  -0.109621  -0.000000   0.000000
   97  H 10  S    0.000000   0.085668  -0.044030  -0.000000   0.000000
   98  H 10  S    0.000000   0.179983  -0.092509  -0.000000   0.000000
   99  H 11  S    0.000000   0.004713  -0.096213  -0.000000   0.000000
  100  H 11  S    0.000000   0.009868  -0.202110  -0.000000   0.000000
  101  H 12  S    0.000000   0.080972   0.052182  -0.000000   0.000000
  102  H 12  S    0.000000   0.170107   0.109619  -0.000000   0.000000

                     86         87         88         89         90
                    2.6487     2.8811     2.8811     3.0044     3.0749
                     A          A          A          A          A   
    1  C  1  S    0.000000  -0.084370   0.002396   0.000000   0.025197
    2  C  1  S    0.000000  -0.226210   0.006424   0.000000  -0.048795
    3  C  1  X    0.000000   0.075050  -0.229957   0.000000  -0.299601
    4  C  1  Y    0.000000   0.144920   0.127416   0.000000   0.098064
    5  C  1  Z   -0.035081  -0.000000  -0.000000   0.000002   0.000000
    6  C  1  S    0.000000   2.919941  -0.082939   0.000000  -0.529887
    7  C  1  X    0.000000   0.668138  -0.526882   0.000000  -0.193158
    8  C  1  Y    0.000000   1.190532   0.259423   0.000000  -0.291662
    9  C  1  Z   -0.363103  -0.000000  -0.000000   0.000001   0.000000
   10  C  1 XX    0.000000   0.311238  -0.270539   0.000000  -0.226284
   11  C  1 YY    0.000000   0.401510   0.250296   0.000000   0.130824
   12  C  1 ZZ    0.000000  -0.697176   0.019799   0.000000   0.155918
   13  C  1 XY    0.000000   0.070476  -0.176468   0.000000   0.433180
   14  C  1 XZ   -0.246122  -0.000000  -0.000000  -0.480586   0.000000
   15  C  1 YZ   -0.426203  -0.000000  -0.000000   0.277466   0.000000
   16  C  2  S    0.000000   0.040110  -0.074265   0.000000  -0.039846
   17  C  2  S    0.000000   0.107542  -0.199119   0.000000   0.077318
   18  C  2  X    0.000000   0.239129   0.036469   0.000000  -0.103181
   19  C  2  Y    0.000000   0.048566   0.186764   0.000000   0.059110
   20  C  2  Z    0.035141  -0.000000  -0.000000  -0.000000   0.000000
   21  C  2  S    0.000000  -1.388121   2.570266   0.000000   0.838394
   22  C  2  X    0.000000   0.771183  -0.359575   0.000000  -0.279431
   23  C  2  Y    0.000000  -0.304108   1.179932   0.000000   0.475923
   24  C  2  Z    0.363146  -0.000000  -0.000000  -0.000001   0.000000
   25  C  2 XX    0.000000  -0.381666   0.156183   0.000000   0.397323
   26  C  2 YY    0.000000   0.042823   0.471197   0.000000  -0.246179
   27  C  2 ZZ    0.000000   0.331440  -0.613672   0.000000  -0.246568
   28  C  2 XY    0.000000   0.189308   0.016482   0.000000   0.658444
   29  C  2 XZ   -0.245986  -0.000000  -0.000000  -0.480580   0.000000
   30  C  2 YZ    0.426402  -0.000000  -0.000000  -0.277465   0.000000
   31  C  3  S    0.000000   0.044262   0.071869   0.000000   0.014630
   32  C  3  S    0.000000   0.118687   0.192694   0.000000  -0.028316
   33  C  3  X    0.000000   0.085525   0.138877   0.000000   0.037655
   34  C  3  Y    0.000000  -0.223899   0.137896   0.000000   0.368320
   35  C  3  Z   -0.035127  -0.000000  -0.000000   0.000004   0.000000
   36  C  3  S    0.000000  -1.531872  -2.487337   0.000000  -0.307755
   37  C  3  X    0.000000   0.716188   1.162867   0.000000   0.202812
   38  C  3  Y    0.000000  -0.499158   0.307404   0.000000   0.025562
   39  C  3  Z   -0.363132  -0.000000  -0.000000   0.000002   0.000000
   40  C  3 XX    0.000000  -0.226525  -0.367812   0.000000   0.212785
   41  C  3 YY    0.000000  -0.147383  -0.239327   0.000000  -0.268212
   42  C  3 ZZ    0.000000   0.365739   0.593874   0.000000   0.090533
   43  C  3 XY    0.000000   0.296989  -0.182898   0.000000   0.045460
   44  C  3 XZ    0.492237  -0.000000  -0.000000   0.000000   0.000000
   45  C  3 YZ    0.000230  -0.000000  -0.000000  -0.554919   0.000000
   46  C  4  S    0.000000  -0.084371   0.002396   0.000000   0.025199
   47  C  4  S    0.000000  -0.226226   0.006421   0.000000  -0.048945
   48  C  4  X    0.000000  -0.075048   0.229960   0.000000   0.299375
   49  C  4  Y    0.000000  -0.144917  -0.127419   0.000000  -0.097782
   50  C  4  Z    0.035078  -0.000000  -0.000000  -0.000002   0.000000
   51  C  4  S    0.000000   2.920038  -0.082918   0.000000  -0.529838
   52  C  4  X    0.000000  -0.668158   0.526874   0.000000   0.192169
   53  C  4  Y    0.000000  -1.190599  -0.259429   0.000000   0.291862
   54  C  4  Z    0.363096  -0.000000  -0.000000  -0.000002   0.000000
   55  C  4 XX    0.000000   0.311225  -0.270543   0.000000  -0.225848
   56  C  4 YY    0.000000   0.401521   0.250302   0.000000   0.130282
   57  C  4 ZZ    0.000000  -0.697176   0.019800   0.000000   0.155939
   58  C  4 XY    0.000000   0.070480  -0.176478   0.000000   0.433555
   59  C  4 XZ   -0.246118  -0.000000  -0.000000   0.480575   0.000000
   60  C  4 YZ   -0.426194  -0.000000  -0.000000  -0.277453   0.000000
   61  C  5  S    0.000000   0.040111  -0.074265   0.000000  -0.039816
   62  C  5  S    0.000000   0.107559  -0.199116   0.000000   0.077195
   63  C  5  X    0.000000  -0.239120  -0.036467   0.000000   0.103067
   64  C  5  Y    0.000000  -0.048565  -0.186770   0.000000  -0.058864
   65  C  5  Z   -0.035142  -0.000000  -0.000000  -0.000002   0.000000
   66  C  5  S    0.000000  -1.388235   2.570262   0.000000   0.836663
   67  C  5  X    0.000000  -0.771216   0.359562   0.000000   0.279288
   68  C  5  Y    0.000000   0.304179  -1.179930   0.000000  -0.475493
   69  C  5  Z   -0.363145  -0.000000  -0.000000  -0.000000   0.000000
   70  C  5 XX    0.000000  -0.381661   0.156184   0.000000   0.397174
   71  C  5 YY    0.000000   0.042813   0.471200   0.000000  -0.246370
   72  C  5 ZZ    0.000000   0.331444  -0.613675   0.000000  -0.246379
   73  C  5 XY    0.000000   0.189298   0.016491   0.000000   0.658389
   74  C  5 XZ   -0.245980  -0.000000  -0.000000   0.480579   0.000000
   75  C  5 YZ    0.426404  -0.000000  -0.000000   0.277468   0.000000
   76  C  6  S    0.000000   0.044260   0.071869   0.000000   0.014632
   77  C  6  S    0.000000   0.118671   0.192690   0.000000  -0.028446
   78  C  6  X    0.000000  -0.085525  -0.138879   0.000000  -0.037753
   79  C  6  Y    0.000000   0.223908  -0.137902   0.000000  -0.367962
   80  C  6  Z    0.035129  -0.000000  -0.000000  -0.000000   0.000000
   81  C  6  S    0.000000  -1.531751  -2.487336   0.000000  -0.307573
   82  C  6  X    0.000000  -0.716117  -1.162856   0.000000  -0.202489
   83  C  6  Y    0.000000   0.499152  -0.307417   0.000000  -0.024512
   84  C  6  Z    0.363139  -0.000000  -0.000000  -0.000001   0.000000
   85  C  6 XX    0.000000  -0.226525  -0.367816   0.000000   0.212787
   86  C  6 YY    0.000000  -0.147376  -0.239323   0.000000  -0.268283
   87  C  6 ZZ    0.000000   0.365734   0.593873   0.000000   0.090550
   88  C  6 XY    0.000000   0.296990  -0.182911   0.000000   0.046201
   89  C  6 XZ    0.492250  -0.000000  -0.000000  -0.000006   0.000000
   90  C  6 YZ    0.000229  -0.000000  -0.000000   0.554934   0.000000
   91  H  7  S    0.000000   0.125580  -0.232508   0.000000   0.325322
   92  H  7  S    0.000000  -0.187883   0.347885   0.000000   0.002237
   93  H  8  S    0.000000   0.138569   0.225004   0.000000  -0.119542
   94  H  8  S    0.000000  -0.207342  -0.336661   0.000000  -0.000827
   95  H  9  S    0.000000  -0.264154   0.007503   0.000000  -0.205823
   96  H  9  S    0.000000   0.395231  -0.011221   0.000000  -0.001349
   97  H 10  S    0.000000   0.138572   0.225008   0.000000  -0.119521
   98  H 10  S    0.000000  -0.207325  -0.336658   0.000000  -0.000763
   99  H 11  S    0.000000   0.125574  -0.232503   0.000000   0.325410
  100  H 11  S    0.000000  -0.187903   0.347880   0.000000   0.002107
  101  H 12  S    0.000000  -0.264153   0.007500   0.000000  -0.205856
  102  H 12  S    0.000000   0.395215  -0.011223   0.000000  -0.001407

                     91         92         93         94         95
                    3.0749     3.0852     3.0852     3.0891     3.3948
                     A          A          A          A          A   
    1  C  1  S    0.031440   0.001801  -0.023485   0.096506   0.000000
    2  C  1  S   -0.060906  -0.014447   0.187909   0.551875   0.000004
    3  C  1  X    0.173644   0.359847   0.162420  -0.070411  -0.368278
    4  C  1  Y   -0.193723  -0.231521   0.215670  -0.121989   0.212627
    5  C  1  Z    0.000000   0.000000  -0.000000   0.000000  -0.000000
    6  C  1  S   -0.661014  -0.087803   1.145284  -6.940978   0.000014
    7  C  1  X   -0.202847   1.054214   0.124600  -1.910333  -1.467400
    8  C  1  Y   -0.385880  -0.616217   0.028209  -3.308904   0.847194
    9  C  1  Z    0.000000   0.000000  -0.000000   0.000000  -0.000000
   10  C  1 XX   -0.340797   0.637306   0.224205  -0.225133  -0.536679
   11  C  1 YY    0.221693  -0.660338   0.075802  -0.358478   0.536682
   12  C  1 ZZ    0.194549   0.011571  -0.150873   0.541601  -0.000001
   13  C  1 XY    0.501608   0.437485  -0.015112  -0.133303  -0.357794
   14  C  1 XZ    0.000000   0.000000  -0.000000   0.000000  -0.000000
   15  C  1 YZ    0.000000   0.000000  -0.000000   0.000000  -0.000000
   16  C  2  S    0.006099   0.021184  -0.010131  -0.096517  -0.000000
   17  C  2  S   -0.011873  -0.170011   0.081634  -0.551819  -0.000005
   18  C  2  X   -0.330179   0.281741   0.277030  -0.070372  -0.368277
   19  C  2  Y   -0.208819  -0.117075   0.293986   0.122125  -0.212629
   20  C  2  Z    0.000000   0.000000  -0.000000   0.000000  -0.000000
   21  C  2  S   -0.128217  -1.033547   0.493612   6.941407   0.000009
   22  C  2  X    0.019712   0.496938   0.938454  -1.910179  -1.467377
   23  C  2  Y   -0.086054   0.197889   0.583382   3.309097  -0.847193
   24  C  2  Z    0.000000   0.000000  -0.000000   0.000000  -0.000000
   25  C  2 XX   -0.098492  -0.439197  -0.513173   0.225069   0.536681
   26  C  2 YY    0.075347   0.168121   0.642958   0.358660  -0.536684
   27  C  2 ZZ    0.037747   0.136123  -0.065120  -0.541668   0.000002
   28  C  2 XY   -0.075766   0.144751   0.413110  -0.133193  -0.357791
   29  C  2 XZ    0.000000   0.000000  -0.000000   0.000000  -0.000000
   30  C  2 YZ    0.000000   0.000000  -0.000000   0.000000  -0.000000
   31  C  3  S   -0.037531   0.019420   0.013267   0.096519   0.000000
   32  C  3  S    0.072742  -0.155640  -0.106690   0.551800   0.000011
   33  C  3  X   -0.096619   0.221767   0.151772   0.140967  -0.000007
   34  C  3  Y    0.143525  -0.242142   0.353763   0.000074  -0.425245
   35  C  3  Z    0.000000   0.000000  -0.000000   0.000000  -0.000000
   36  C  3  S    0.788696  -0.946420  -0.646065  -6.941478   0.000021
   37  C  3  X   -0.519847   0.071002   0.047596   3.820843   0.000013
   38  C  3  Y    0.009914  -0.691786   1.010598   0.000296  -1.694371
   39  C  3  Z    0.000000   0.000000  -0.000000   0.000000  -0.000000
   40  C  3 XX   -0.546027  -0.083911  -0.057354  -0.425117  -0.000010
   41  C  3 YY    0.688165  -0.164261  -0.112384  -0.158625   0.000020
   42  C  3 ZZ   -0.232235   0.124771   0.085270   0.541679  -0.000003
   43  C  3 XY    0.017741   0.491501  -0.718013  -0.000188   0.715567
   44  C  3 XZ    0.000000   0.000000  -0.000000   0.000000  -0.000000
   45  C  3 YZ    0.000000   0.000000  -0.000000   0.000000  -0.000000
   46  C  4  S    0.031450  -0.001800   0.023451  -0.096512  -0.000000
   47  C  4  S   -0.061063   0.014440  -0.187833  -0.551876  -0.000006
   48  C  4  X   -0.173275   0.360210   0.162413  -0.070426   0.368270
   49  C  4  Y    0.193714  -0.231721   0.215568  -0.121987  -0.212611
   50  C  4  Z    0.000000   0.000000  -0.000000   0.000000  -0.000000
   51  C  4  S   -0.661400   0.087773  -1.144584   6.940998  -0.000016
   52  C  4  X    0.203545   1.054246   0.124367  -1.910372   1.467370
   53  C  4  Y    0.385291  -0.616225   0.027807  -3.308965  -0.847175
   54  C  4  Z    0.000000   0.000000  -0.000000   0.000000  -0.000000
   55  C  4 XX   -0.341382  -0.637269  -0.223842   0.225175  -0.536674
   56  C  4 YY    0.222109   0.660289  -0.076033   0.358451   0.536668
   57  C  4 ZZ    0.194614  -0.011565   0.150666  -0.541632   0.000001
   58  C  4 XY    0.501332  -0.437473   0.014528   0.133227  -0.357787
   59  C  4 XZ    0.000000   0.000000  -0.000000   0.000000  -0.000000
   60  C  4 YZ    0.000000   0.000000  -0.000000   0.000000  -0.000000
   61  C  5  S    0.006099  -0.021221   0.010143   0.096518  -0.000000
   62  C  5  S   -0.011789   0.170085  -0.081666   0.551805  -0.000005
   63  C  5  X    0.330569   0.281611   0.276733  -0.070405   0.368276
   64  C  5  Y    0.208968  -0.117256   0.293855   0.122120   0.212635
   65  C  5  Z    0.000000   0.000000  -0.000000   0.000000  -0.000000
   66  C  5  S   -0.128295   1.034302  -0.493854  -6.941478  -0.000021
   67  C  5  X   -0.018774   0.497203   0.938345  -1.910202   1.467376
   68  C  5  Y    0.086812   0.197465   0.583514   3.309095   0.847204
   69  C  5  Z    0.000000   0.000000  -0.000000   0.000000  -0.000000
   70  C  5 XX   -0.097820   0.439607   0.513062  -0.225098   0.536682
   71  C  5 YY    0.074723  -0.168393  -0.642889  -0.358636  -0.536688
   72  C  5 ZZ    0.037739  -0.136348   0.065196   0.541678   0.000001
   73  C  5 XY   -0.076153  -0.144160  -0.413354   0.133130  -0.357783
   74  C  5 XZ    0.000000   0.000000  -0.000000   0.000000  -0.000000
   75  C  5 YZ    0.000000   0.000000  -0.000000   0.000000  -0.000000
   76  C  6  S   -0.037559  -0.019382  -0.013245  -0.096518   0.000000
   77  C  6  S    0.072898   0.155572   0.106643  -0.551806   0.000002
   78  C  6  X    0.096895   0.221683   0.151714   0.140964  -0.000003
   79  C  6  Y   -0.143435  -0.242349   0.354038   0.000115   0.425257
   80  C  6  Z    0.000000   0.000000  -0.000000   0.000000  -0.000000
   81  C  6  S    0.790235   0.945693   0.645600   6.941493  -0.000008
   82  C  6  X    0.520151   0.070508   0.047294   3.820866  -0.000014
   83  C  6  Y   -0.009622  -0.691786   1.010600   0.000290   1.694399
   84  C  6  Z    0.000000   0.000000  -0.000000   0.000000  -0.000000
   85  C  6 XX   -0.545892   0.084471   0.057661   0.425145  -0.000014
   86  C  6 YY    0.688370   0.163576   0.111991   0.158599   0.000015
   87  C  6 ZZ   -0.232421  -0.124548  -0.085131  -0.541679  -0.000000
   88  C  6 XY    0.017942  -0.491472   0.717973   0.000181   0.715585
   89  C  6 XZ    0.000000   0.000000  -0.000000   0.000000  -0.000000
   90  C  6 YZ    0.000000   0.000000  -0.000000   0.000000  -0.000000
   91  H  7  S   -0.049827   0.075764  -0.036266  -0.127022  -0.000001
   92  H  7  S   -0.000311  -0.042390   0.020093   0.875021   0.000001
   93  H  8  S    0.306739   0.069033   0.047244   0.127004   0.000000
   94  H  8  S    0.002001  -0.038781  -0.026327  -0.875003  -0.000000
   95  H  9  S   -0.256843  -0.006418   0.083778  -0.126959  -0.000000
   96  H  9  S   -0.001713   0.003595  -0.047097   0.874998   0.000001
   97  H 10  S    0.306642  -0.069344  -0.047415  -0.127017   0.000002
   98  H 10  S    0.002099   0.038787   0.026324   0.875019  -0.000000
   99  H 11  S   -0.049832  -0.075461   0.036145   0.126990  -0.000001
  100  H 11  S   -0.000347   0.042391  -0.020085  -0.874997   0.000000
  101  H 12  S   -0.256889   0.006427  -0.083486   0.127001  -0.000002
  102  H 12  S   -0.001731  -0.003601   0.047095  -0.874985   0.000001

                     96         97         98         99        100
                    3.7958     4.5148     4.5436     4.5436     4.7560
                     A          A          A          A          A   
    1  C  1  S    0.070991  -0.188589  -0.277661   0.024449   0.026918
    2  C  1  S    0.048895   1.314689   1.737241  -0.152968  -0.160074
    3  C  1  X   -0.054187   0.027470  -0.031464  -0.163459   0.176527
    4  C  1  Y   -0.093862   0.047574  -0.020952   0.097820  -0.084033
    5  C  1  Z   -0.000000  -0.000000  -0.000000   0.000000  -0.000000
    6  C  1  S   -3.887615   0.356373   0.796395  -0.070131  -0.168847
    7  C  1  X   -1.089685  -0.030048   0.055787   0.109687  -0.182425
    8  C  1  Y   -1.887426  -0.052041   0.073502  -0.072637   0.064875
    9  C  1  Z   -0.000000  -0.000000  -0.000000   0.000000  -0.000000
   10  C  1 XX   -0.400624  -0.688031  -1.060054  -0.012303   0.232690
   11  C  1 YY    0.187229  -0.725681  -1.044858   0.197652   0.004904
   12  C  1 ZZ    0.299591  -0.732467  -1.082116   0.095285   0.100655
   13  C  1 XY    0.587839  -0.037642  -0.009420  -0.069604   0.060957
   14  C  1 XZ   -0.000000  -0.000000  -0.000000   0.000000  -0.000000
   15  C  1 YZ   -0.000000  -0.000000  -0.000000   0.000000  -0.000000
   16  C  2  S   -0.070990  -0.188601  -0.117662   0.252676  -0.254807
   17  C  2  S   -0.048907   1.314763   0.736177  -1.580909   1.515263
   18  C  2  X   -0.054193  -0.027457  -0.142938  -0.085312   0.003041
   19  C  2  Y    0.093859   0.047580  -0.099103  -0.013652  -0.167560
   20  C  2  Z   -0.000000  -0.000000  -0.000000   0.000000  -0.000000
   21  C  2  S    3.887604   0.356446   0.337507  -0.724763   1.598371
   22  C  2  X   -1.089708   0.030026   0.084083   0.089848  -0.097139
   23  C  2  Y    1.887436  -0.052023   0.093352  -0.044342   0.326813
   24  C  2  Z   -0.000000  -0.000000  -0.000000   0.000000  -0.000000
   25  C  2 XX    0.400620  -0.688085  -0.349890   1.000687  -1.132632
   26  C  2 YY   -0.187215  -0.725717  -0.542094   0.914816  -1.116490
   27  C  2 ZZ   -0.299584  -0.732516  -0.458560   0.984743  -0.952810
   28  C  2 XY    0.587832   0.037647  -0.062219  -0.032586  -0.136366
   29  C  2 XZ   -0.000000  -0.000000  -0.000000   0.000000  -0.000000
   30  C  2 YZ   -0.000000  -0.000000  -0.000000   0.000000  -0.000000
   31  C  3  S    0.070990  -0.188615   0.159993   0.228225   0.227890
   32  C  3  S    0.048907   1.314851  -1.001010  -1.427931  -1.355191
   33  C  3  X    0.108377  -0.054931  -0.019529  -0.027849  -0.131140
   34  C  3  Y    0.000007   0.000005  -0.156565   0.109759  -0.113752
   35  C  3  Z   -0.000000  -0.000000  -0.000000   0.000000  -0.000000
   36  C  3  S   -3.887601   0.356453  -0.458943  -0.654617  -1.429520
   37  C  3  X    2.179399   0.060080   0.052776   0.075257   0.296567
   38  C  3  Y    0.000024  -0.000002   0.107933  -0.075667   0.111142
   39  C  3  Z   -0.000000  -0.000000  -0.000000   0.000000  -0.000000
   40  C  3 XX    0.481132  -0.744597   0.608322   0.867757   0.910681
   41  C  3 YY   -0.694528  -0.669312   0.604566   0.862389   1.100845
   42  C  3 ZZ    0.299585  -0.732570   0.623534   0.889452   0.852155
   43  C  3 XY    0.000015  -0.000008   0.114902  -0.080549   0.084262
   44  C  3 XZ   -0.000000  -0.000000  -0.000000   0.000000  -0.000000
   45  C  3 YZ   -0.000000  -0.000000  -0.000000   0.000000  -0.000000
   46  C  4  S   -0.070990  -0.188618   0.277642  -0.024453   0.026915
   47  C  4  S   -0.048911   1.314864  -1.737109   0.153000  -0.160056
   48  C  4  X   -0.054193  -0.027463  -0.031468  -0.163460  -0.176525
   49  C  4  Y   -0.093858  -0.047574  -0.020956   0.097814   0.084029
   50  C  4  Z   -0.000000  -0.000000  -0.000000   0.000000  -0.000000
   51  C  4  S    3.887572   0.356487  -0.796362   0.070124  -0.168841
   52  C  4  X   -1.089692   0.030031   0.055791   0.109687   0.182419
   53  C  4  Y   -1.887426   0.052017   0.073506  -0.072629  -0.064873
   54  C  4  Z   -0.000000  -0.000000  -0.000000   0.000000  -0.000000
   55  C  4 XX    0.400619  -0.688143   1.059987   0.012293   0.232684
   56  C  4 YY   -0.187220  -0.725784   1.044785  -0.197667   0.004895
   57  C  4 ZZ   -0.299585  -0.732580   1.082044  -0.095300   0.100645
   58  C  4 XY   -0.587825  -0.037648   0.009421   0.069604   0.060957
   59  C  4 XZ   -0.000000  -0.000000  -0.000000   0.000000  -0.000000
   60  C  4 YZ   -0.000000  -0.000000  -0.000000   0.000000  -0.000000
   61  C  5  S    0.070990  -0.188606   0.117640  -0.252683  -0.254807
   62  C  5  S    0.048900   1.314795  -0.736024   1.580959   1.515261
   63  C  5  X   -0.054185   0.027475  -0.142936  -0.085313  -0.003041
   64  C  5  Y    0.093861  -0.047568  -0.099106  -0.013653   0.167560
   65  C  5  Z   -0.000000  -0.000000  -0.000000   0.000000  -0.000000
   66  C  5  S   -3.887620   0.356428  -0.337453   0.724784   1.598364
   67  C  5  X   -1.089712  -0.030046   0.084082   0.089849   0.097136
   68  C  5  Y    1.887410   0.052030   0.093358  -0.044342  -0.326812
   69  C  5  Z   -0.000000  -0.000000  -0.000000   0.000000  -0.000000
   70  C  5 XX   -0.400610  -0.688092   0.349807  -1.000718  -1.132632
   71  C  5 YY    0.187212  -0.725746   0.542005  -0.914843  -1.116487
   72  C  5 ZZ    0.299588  -0.732534   0.458473  -0.984772  -0.952809
   73  C  5 XY   -0.587837   0.037637   0.062223   0.032585  -0.136369
   74  C  5 XZ   -0.000000  -0.000000  -0.000000   0.000000  -0.000000
   75  C  5 YZ   -0.000000  -0.000000  -0.000000   0.000000  -0.000000
   76  C  6  S   -0.070990  -0.188592  -0.160011  -0.228231   0.227892
   77  C  6  S   -0.048901   1.314705   1.001143   1.427968  -1.355204
   78  C  6  X    0.108382   0.054936  -0.019520  -0.027849   0.131141
   79  C  6  Y   -0.000002   0.000008  -0.156567   0.109763   0.113752
   80  C  6  Z   -0.000000  -0.000000  -0.000000   0.000000  -0.000000
   81  C  6  S    3.887625   0.356418   0.458970   0.654634  -1.429529
   82  C  6  X    2.179421  -0.060070   0.052766   0.075257  -0.296567
   83  C  6  Y    0.000019  -0.000006   0.107932  -0.075669  -0.111141
   84  C  6  Z   -0.000000  -0.000000  -0.000000   0.000000  -0.000000
   85  C  6 XX   -0.481135  -0.744508  -0.608394  -0.867780   0.910689
   86  C  6 YY    0.694540  -0.669222  -0.604630  -0.862409   1.100856
   87  C  6 ZZ   -0.299588  -0.732479  -0.623605  -0.889474   0.852164
   88  C  6 XY   -0.000014   0.000004  -0.114900   0.080552   0.084260
   89  C  6 XZ   -0.000000  -0.000000  -0.000000   0.000000  -0.000000
   90  C  6 YZ   -0.000000  -0.000000  -0.000000   0.000000  -0.000000
   91  H  7  S    0.265525   0.087037   0.047733  -0.102503   0.083356
   92  H  7  S    0.365107  -0.168560  -0.072472   0.155628  -0.147457
   93  H  8  S   -0.265521   0.087042  -0.064904  -0.092583  -0.074550
   94  H  8  S   -0.365096  -0.168573   0.098538   0.140569   0.131880
   95  H  9  S    0.265525   0.087047  -0.112633   0.009920  -0.008805
   96  H  9  S    0.365106  -0.168573   0.171007  -0.015063   0.015577
   97  H 10  S    0.265525   0.087033   0.064912   0.092586  -0.074551
   98  H 10  S    0.365104  -0.168554  -0.098555  -0.140574   0.131882
   99  H 11  S   -0.265520   0.087037  -0.047722   0.102504   0.083354
  100  H 11  S   -0.365092  -0.168566   0.072451  -0.155632  -0.147456
  101  H 12  S   -0.265527   0.087033   0.112640  -0.009918  -0.008806
  102  H 12  S   -0.365096  -0.168560  -0.171022   0.015059   0.015578

                    101        102
                    4.7560     5.0971
                     A          A   
    1  C  1  S   -0.278686   0.215297
    2  C  1  S    1.657262  -1.021853
    3  C  1  X   -0.063880   0.082796
    4  C  1  Y   -0.148296   0.143414
    5  C  1  Z    0.000000   0.000000
    6  C  1  S    1.748144  -3.558501
    7  C  1  X    0.165404  -0.752212
    8  C  1  Y    0.323276  -1.302895
    9  C  1  Z    0.000000   0.000000
   10  C  1 XX   -1.277627   1.048124
   11  C  1 YY   -1.182264   0.885584
   12  C  1 ZZ   -1.042098   0.737025
   13  C  1 XY    0.123249  -0.162538
   14  C  1 XZ    0.000000   0.000000
   15  C  1 YZ    0.000000   0.000000
   16  C  2  S    0.116032  -0.215296
   17  C  2  S   -0.690012   1.021838
   18  C  2  X   -0.187706   0.082800
   19  C  2  Y   -0.031273  -0.143415
   20  C  2  Z    0.000000   0.000000
   21  C  2  S   -0.727844   3.558499
   22  C  2  X    0.226275  -0.752227
   23  C  2  Y   -0.043717   1.302906
   24  C  2  Z    0.000000   0.000000
   25  C  2 XX    0.635302  -1.048114
   26  C  2 YY    0.388887  -0.885578
   27  C  2 ZZ    0.433884  -0.737021
   28  C  2 XY   -0.017588  -0.162537
   29  C  2 XZ    0.000000   0.000000
   30  C  2 YZ    0.000000   0.000000
   31  C  3  S    0.162654   0.215295
   32  C  3  S   -0.967263  -1.021841
   33  C  3  X   -0.093598  -0.165596
   34  C  3  Y    0.159365  -0.000008
   35  C  3  Z    0.000000   0.000000
   36  C  3  S   -1.020297  -3.558484
   37  C  3  X    0.211675   1.504445
   38  C  3  Y   -0.155709   0.000023
   39  C  3  Z    0.000000   0.000000
   40  C  3 XX    0.649992   0.804308
   41  C  3 YY    0.785717   1.129378
   42  C  3 ZZ    0.608221   0.737019
   43  C  3 XY   -0.118058  -0.000001
   44  C  3 XZ    0.000000   0.000000
   45  C  3 YZ    0.000000   0.000000
   46  C  4  S   -0.278686  -0.215296
   47  C  4  S    1.657268   1.021845
   48  C  4  X    0.063883   0.082800
   49  C  4  Y    0.148292   0.143409
   50  C  4  Z    0.000000   0.000000
   51  C  4  S    1.748148   3.558461
   52  C  4  X   -0.165408  -0.752220
   53  C  4  Y   -0.323278  -1.302891
   54  C  4  Z    0.000000   0.000000
   55  C  4 XX   -1.277626  -1.048113
   56  C  4 YY   -1.182265  -0.885574
   57  C  4 ZZ   -1.042100  -0.737022
   58  C  4 XY    0.123245   0.162532
   59  C  4 XZ    0.000000   0.000000
   60  C  4 YZ    0.000000   0.000000
   61  C  5  S    0.116032   0.215296
   62  C  5  S   -0.690010  -1.021839
   63  C  5  X    0.187705   0.082797
   64  C  5  Y    0.031273  -0.143414
   65  C  5  Z    0.000000   0.000000
   66  C  5  S   -0.727856  -3.558502
   67  C  5  X   -0.226281  -0.752231
   68  C  5  Y    0.043720   1.302888
   69  C  5  Z    0.000000   0.000000
   70  C  5 XX    0.635301   1.048110
   71  C  5 YY    0.388887   0.885579
   72  C  5 ZZ    0.433884   0.737019
   73  C  5 XY   -0.017586   0.162540
   74  C  5 XZ    0.000000   0.000000
   75  C  5 YZ    0.000000   0.000000
   76  C  6  S    0.162652  -0.215297
   77  C  6  S   -0.967241   1.021839
   78  C  6  X    0.093601  -0.165602
   79  C  6  Y   -0.159372  -0.000001
   80  C  6  Z    0.000000   0.000000
   81  C  6  S   -1.020290   3.558513
   82  C  6  X   -0.211671   1.504465
   83  C  6  Y    0.155710   0.000014
   84  C  6  Z    0.000000   0.000000
   85  C  6 XX    0.649982  -0.804311
   86  C  6 YY    0.785707  -1.129388
   87  C  6 ZZ    0.608209  -0.737023
   88  C  6 XY   -0.118059   0.000003
   89  C  6 XZ    0.000000   0.000000
   90  C  6 YZ    0.000000   0.000000
   91  H  7  S   -0.037958   0.088030
   92  H  7  S    0.067148   0.137250
   93  H  8  S   -0.053209  -0.088029
   94  H  8  S    0.094127  -0.137243
   95  H  9  S    0.091169   0.088031
   96  H  9  S   -0.161277   0.137247
   97  H 10  S   -0.053208   0.088030
   98  H 10  S    0.094126   0.137248
   99  H 11  S   -0.037957  -0.088028
  100  H 11  S    0.067145  -0.137242
  101  H 12  S    0.091169  -0.088031
  102  H 12  S   -0.161276  -0.137241
 .....DONE WITH MCSCF ITERATIONS.....
 STEP CPU TIME =     2.66 TOTAL CPU TIME =          4.1 (      0.1 MIN)
 TOTAL WALL CLOCK TIME=          4.1 SECONDS, CPU UTILIZATION IS    99.60%

     ----------------------------------------------------------------
     PROPERTY VALUES FOR THE MCSCF SELF-CONSISTENT FIELD WAVEFUNCTION
     ----------------------------------------------------------------

          -----------------
          ENERGY COMPONENTS
          -----------------

         WAVEFUNCTION NORMALIZATION =       1.0000000000

                ONE ELECTRON ENERGY =    -713.6443561971
                TWO ELECTRON ENERGY =     279.3886459605
           NUCLEAR REPULSION ENERGY =     203.5533822373
                                      ------------------
                       TOTAL ENERGY =    -230.7023279994

 ELECTRON-ELECTRON POTENTIAL ENERGY =     279.3886459605
  NUCLEUS-ELECTRON POTENTIAL ENERGY =    -943.9333196263
   NUCLEUS-NUCLEUS POTENTIAL ENERGY =     203.5533822373
                                      ------------------
             TOTAL POTENTIAL ENERGY =    -460.9912914286
               TOTAL KINETIC ENERGY =     230.2889634292
                 VIRIAL RATIO (V/T) =       2.0017949821

          ---------------------------------------
          MULLIKEN AND LOWDIN POPULATION ANALYSES
          ---------------------------------------

     ATOMIC MULLIKEN POPULATION IN EACH MOLECULAR ORBITAL

                      1          2          3          4          5

                  2.000000   2.000000   2.000000   2.000000   2.000000

    1             0.332385   0.006377   0.660627   0.006134   0.660010
    2             0.333055   0.551251   0.115356   0.551261   0.115274
    3             0.333883   0.442039   0.224376   0.442677   0.224052
    4             0.333909   0.006425   0.659487   0.006089   0.661145
    5             0.333576   0.552131   0.114489   0.550351   0.116155
    6             0.332683   0.441433   0.225319   0.443251   0.223127
    7             0.000085   0.000095   0.000020   0.000065   0.000014
    8             0.000085   0.000076   0.000039   0.000052   0.000026
    9             0.000085   0.000001   0.000114   0.000001   0.000078
   10             0.000085   0.000076   0.000039   0.000052   0.000026
   11             0.000085   0.000095   0.000020   0.000065   0.000014
   12             0.000085   0.000001   0.000114   0.000001   0.000078

                      6          7          8          9         10

                  2.000000   2.000000   2.000000   2.000000   2.000000

    1             0.334204   0.322766   0.090650   0.526779   0.327385
    2             0.333540   0.322758   0.457219   0.160213   0.252305
    3             0.332711   0.322756   0.378287   0.239147   0.274933
    4             0.332682   0.322753   0.090647   0.526789   0.327387
    5             0.333035   0.322760   0.457211   0.160221   0.252308
    6             0.333924   0.322763   0.378284   0.239145   0.274935
    7            -0.000016   0.010574   0.041026   0.008208   0.012969
    8            -0.000016   0.010574   0.032304   0.016930   0.037626
    9            -0.000016   0.010574   0.000521   0.048716   0.094779
   10            -0.000016   0.010574   0.032304   0.016930   0.037626
   11            -0.000016   0.010574   0.041025   0.008208   0.012969
   12            -0.000016   0.010575   0.000521   0.048715   0.094779

                     11         12         13         14         15

                  2.000000   2.000000   2.000000   2.000000   2.000000

    1             0.242368   0.229890   0.203220   0.333332   0.029260
    2             0.317444   0.229897   0.203205   0.333334   0.351842
    3             0.294819   0.229888   0.203215   0.333334   0.294197
    4             0.242366   0.229891   0.203214   0.333333   0.029257
    5             0.317442   0.229887   0.203212   0.333333   0.351828
    6             0.294813   0.229896   0.203207   0.333334   0.294200
    7             0.083946   0.103445   0.130116   0.000000   0.177296
    8             0.059291   0.103440   0.130123   0.000000   0.145885
    9             0.002138   0.103442   0.130123   0.000000   0.001529
   10             0.059288   0.103445   0.130117   0.000000   0.145889
   11             0.083945   0.103439   0.130120   0.000000   0.177287
   12             0.002138   0.103440   0.130127   0.000000   0.001529

                     16         17         18         19         20

                  2.000000   2.000000   2.000000   2.000000   2.000000

    1             0.420924   0.229751   0.243924        NaN        NaN
    2             0.098362   0.240824   0.232844        NaN        NaN
    3             0.155996   0.239941   0.233738        NaN        NaN
    4             0.420940   0.229738   0.243933        NaN        NaN
    5             0.098368   0.240826   0.232855        NaN        NaN
    6             0.155998   0.239942   0.233726        NaN        NaN
    7             0.039182   0.042377   0.150610        NaN        NaN
    8             0.070584   0.054366   0.138629        NaN        NaN
    9             0.214942   0.192738   0.000249        NaN        NaN
   10             0.070587   0.054367   0.138624        NaN        NaN
   11             0.039184   0.042381   0.150619        NaN        NaN
   12             0.214933   0.192748   0.000248        NaN        NaN

                     21

                  2.000000

    1                  NaN
    2                  NaN
    3                  NaN
    4                  NaN
    5                  NaN
    6                  NaN
    7                  NaN
    8                  NaN
    9                  NaN
   10                  NaN
   11                  NaN
   12                  NaN
 WARNING! MCSCF POPULATIONS SHOWN ABOVE ARE FOR THE NATURAL ORBITALS.
 IGNORE THE ABOVE DATA FOR MCSCF FUNCTIONS WHICH ARE NOT OF -FORS- TYPE.
 THE FOLLOWING POPULATIONS ARE CORRECT FOR ANY MCSCF WAVEFUNCTION.

               ----- POPULATIONS IN EACH AO -----
                             MULLIKEN      LOWDIN
              1  C  1  S      1.99663     1.97987
              2  C  1  S      0.66939     0.35232
              3  C  1  X      0.74278     0.66081
              4  C  1  Y      0.73219     0.64979
              5  C  1  Z      0.51692     0.47664
              6  C  1  S      0.48989     0.29886
              7  C  1  X      0.21450     0.34612
              8  C  1  Y      0.30586     0.38781
              9  C  1  Z      0.47299     0.50502
             10  C  1 XX      0.02219     0.17842
             11  C  1 YY      0.02820     0.17710
             12  C  1 ZZ     -0.01853     0.10059
             13  C  1 XY      0.01689     0.03248
             14  C  1 XZ      0.00615     0.01184
             15  C  1 YZ      0.00394     0.00650
             16  C  2  S      1.99663     1.97987
             17  C  2  S      0.66939     0.35232
             18  C  2  X      0.74278     0.66081
             19  C  2  Y      0.73219     0.64979
             20  C  2  Z      0.51693     0.47664
             21  C  2  S      0.48989     0.29886
             22  C  2  X      0.21450     0.34612
             23  C  2  Y      0.30586     0.38781
             24  C  2  Z      0.47299     0.50502
             25  C  2 XX      0.02219     0.17842
             26  C  2 YY      0.02820     0.17710
             27  C  2 ZZ     -0.01853     0.10059
             28  C  2 XY      0.01689     0.03248
             29  C  2 XZ      0.00615     0.01184
             30  C  2 YZ      0.00394     0.00650
             31  C  3  S      1.99663     1.97984
             32  C  3  S      0.66939     0.35191
             33  C  3  X      0.72689     0.64702
             34  C  3  Y      0.74808     0.66264
             35  C  3  Z      0.51692     0.47664
             36  C  3  S      0.48990     0.29876
             37  C  3  X      0.35155     0.40883
             38  C  3  Y      0.16882     0.32576
             39  C  3  Z      0.47299     0.50502
             40  C  3 XX      0.03279     0.18076
             41  C  3 YY      0.02077     0.18132
             42  C  3 ZZ     -0.01853     0.10053
             43  C  3 XY      0.01371     0.02331
             44  C  3 XZ      0.00284     0.00383
             45  C  3 YZ      0.00725     0.01451
             46  C  4  S      1.99663     1.97987
             47  C  4  S      0.66939     0.35232
             48  C  4  X      0.74278     0.66081
             49  C  4  Y      0.73219     0.64979
             50  C  4  Z      0.51692     0.47664
             51  C  4  S      0.48990     0.29886
             52  C  4  X      0.21450     0.34612
             53  C  4  Y      0.30586     0.38781
             54  C  4  Z      0.47299     0.50503
             55  C  4 XX      0.02219     0.17842
             56  C  4 YY      0.02820     0.17710
             57  C  4 ZZ     -0.01853     0.10059
             58  C  4 XY      0.01689     0.03248
             59  C  4 XZ      0.00615     0.01184
             60  C  4 YZ      0.00394     0.00650
             61  C  5  S      1.99663     1.97987
             62  C  5  S      0.66939     0.35232
             63  C  5  X      0.74278     0.66081
             64  C  5  Y      0.73219     0.64979
             65  C  5  Z      0.51692     0.47664
             66  C  5  S      0.48989     0.29886
             67  C  5  X      0.21450     0.34612
             68  C  5  Y      0.30587     0.38781
             69  C  5  Z      0.47299     0.50502
             70  C  5 XX      0.02219     0.17842
             71  C  5 YY      0.02819     0.17710
             72  C  5 ZZ     -0.01853     0.10059
             73  C  5 XY      0.01689     0.03248
             74  C  5 XZ      0.00615     0.01184
             75  C  5 YZ      0.00394     0.00650
             76  C  6  S      1.99663     1.97984
             77  C  6  S      0.66939     0.35191
             78  C  6  X      0.72689     0.64702
             79  C  6  Y      0.74808     0.66264
             80  C  6  Z      0.51693     0.47664
             81  C  6  S      0.48989     0.29876
             82  C  6  X      0.35155     0.40883
             83  C  6  Y      0.16882     0.32576
             84  C  6  Z      0.47299     0.50502
             85  C  6 XX      0.03279     0.18076
             86  C  6 YY      0.02077     0.18132
             87  C  6 ZZ     -0.01853     0.10053
             88  C  6 XY      0.01371     0.02331
             89  C  6 XZ      0.00284     0.00383
             90  C  6 YZ      0.00725     0.01451
             91  H  7  S      0.52557     0.48915
             92  H  7  S      0.27445     0.34701
             93  H  8  S      0.52557     0.49144
             94  H  8  S      0.27445     0.34723
             95  H  9  S      0.52557     0.48915
             96  H  9  S      0.27444     0.34700
             97  H 10  S      0.52557     0.49144
             98  H 10  S      0.27445     0.34723
             99  H 11  S      0.52557     0.48915
            100  H 11  S      0.27445     0.34701
            101  H 12  S      0.52557     0.48915
            102  H 12  S      0.27445     0.34700

          ----- MULLIKEN ATOMIC OVERLAP POPULATIONS -----
          (OFF-DIAGONAL ELEMENTS NEED TO BE MULTIPLIED BY 2)

             1           2           3           4           5

    1    4.8901968
    2    0.5531752   4.8901959
    3   -0.0452704   0.5531771   4.8901993
    4   -0.0325190  -0.0452700   0.5531740   4.8901988
    5   -0.0452703  -0.0325185  -0.0452691   0.5531774   4.8901975
    6    0.5531782  -0.0452688  -0.0325187  -0.0452701   0.5531746
    7   -0.0306281   0.3826329  -0.0306280   0.0024738   0.0001707
    8    0.0024739  -0.0306282   0.3826325  -0.0306282   0.0024738
    9    0.0001708   0.0024739  -0.0306282   0.3826335  -0.0306283
   10   -0.0306282   0.0024738   0.0001708   0.0024738  -0.0306282
   11    0.0024739   0.0001708   0.0024738  -0.0306278   0.3826321
   12    0.3826335  -0.0306289   0.0024740   0.0001708   0.0024740

             6           7           8           9          10

    6    4.8901958
    7    0.0024738   0.4769108
    8    0.0001708  -0.0015948   0.4769128
    9    0.0024739  -0.0001064  -0.0015948   0.4769110
   10    0.3826329  -0.0001064   0.0000094  -0.0001064   0.4769119
   11   -0.0306284   0.0000094  -0.0001064  -0.0015948  -0.0015948
   12   -0.0306287  -0.0015948  -0.0001064   0.0000094  -0.0015949

            11          12

   11    0.4769130
   12   -0.0001064   0.4769137

          TOTAL MULLIKEN AND LOWDIN ATOMIC POPULATIONS
       ATOM         MULL.POP.    CHARGE          LOW.POP.     CHARGE
    1 C             6.199986   -0.199986         6.164172   -0.164172
    2 C             6.199985   -0.199985         6.164173   -0.164173
    3 C             6.199987   -0.199987         6.160675   -0.160675
    4 C             6.199987   -0.199987         6.164174   -0.164174
    5 C             6.199986   -0.199986         6.164171   -0.164171
    6 C             6.199985   -0.199985         6.160676   -0.160676
    7 H             0.800013    0.199987         0.836156    0.163844
    8 H             0.800014    0.199986         0.838667    0.161333
    9 H             0.800013    0.199987         0.836156    0.163844
   10 H             0.800014    0.199986         0.838666    0.161334
   11 H             0.800014    0.199986         0.836158    0.163842
   12 H             0.800015    0.199985         0.836157    0.163843

          ---------------------
          ELECTROSTATIC MOMENTS
          ---------------------

 POINT   1           X           Y           Z (BOHR)    CHARGE
                 1.317120    2.281347    0.000000       -0.00 (A.U.)
         DX          DY          DZ         /D/  (DEBYE)
     0.000001   -0.000003    0.000000    0.000003
 ...... END OF PROPERTY EVALUATION ......
 STEP CPU TIME =     0.01 TOTAL CPU TIME =          4.1 (      0.1 MIN)
 TOTAL WALL CLOCK TIME=          4.2 SECONDS, CPU UTILIZATION IS    99.57%

   1 warning(s) detected.
     A line exceeding 80 characters begins with "!  norder=1 iorder(1".
 There may be a problem in your input file.

              1725202  WORDS OF DYNAMIC MEMORY USED
 EXECUTION OF GAMESS TERMINATED NORMALLY 17:42:21 20-JAN-2025    
 DDI: 263640 bytes (0.3 MB / 0 MWords) used by master data server.

 ----------------------------------------
 CPU timing information for all processes
 ========================================
 0: 3.552 + 0.593 = 4.145
 ----------------------------------------
 ddikick.x: exited gracefully.
----- accounting info -----
Files used on the master node muhka were:
-rw-r--r-- 1 humbel users    51005 Jan 20 17:42 /scratch/humbel.269382/b_d_HF.F05
-rw-r--r-- 1 humbel users 82807360 Jan 20 17:42 /scratch/humbel.269382/b_d_HF.F08
-rw-r--r-- 1 humbel users   222048 Jan 20 17:42 /scratch/humbel.269382/b_d_HF.F09
-rw-r--r-- 1 humbel users  2846640 Jan 20 17:42 /scratch/humbel.269382/b_d_HF.F10
-rw-r--r-- 1 humbel users   275136 Jan 20 17:42 /scratch/humbel.269382/b_d_HF.F11
-rw-r--r-- 1 humbel users      200 Jan 20 17:42 /scratch/humbel.269382/b_d_HF.F12
-rw-r--r-- 1 humbel users   198360 Jan 20 17:42 /scratch/humbel.269382/b_d_HF.F13
-rw-r--r-- 1 humbel users   400008 Jan 20 17:42 /scratch/humbel.269382/b_d_HF.F14
-rw-r--r-- 1 humbel users   181872 Jan 20 17:42 /scratch/humbel.269382/b_d_HF.F15
-rw-r--r-- 1 humbel users   181872 Jan 20 17:42 /scratch/humbel.269382/b_d_HF.F16
-rw-r--r-- 1 humbel users   252864 Jan 20 17:42 /scratch/humbel.269382/b_d_HF.F23
Mon Jan 20 05:42:24 PM CET 2025
0.1u 0.0s 0:07.39 2.1% 0+0k 104+408io 0pf+0w
