!   File created by MacMolPlt 7.7.2
 $CONTRL SCFTYP=RHF RUNTYP=ENERGY COORD=UNIQUE  MAXIT=30 MULT=1 $END
! $CONTRL SCFTYP=MCSCF RUNTYP=ENERGY COORD=UNIQUE  MAXIT=30 MULT=1 $END
 $CONTRL  VBTYP=XMVB                   $END
 $SYSTEM TIMLIM=525600 MEMORY=2185666 $END
 $MCSCF CISTEP=GUGA MAXIT=200 QUAD=.F. $END
 $DRT    GROUP=C1  FORS=.TRUE. NMCC=18 NDOC=3 NVAL=3 $END
 $GUGDIA NSTATE=2 $END
 $GUGDM2 WSTATE(1)=1.0,0.0 $END
 $BASIS GBASIS=N31 NGAUSS=6 $END
 $GUESS GUESS=MOREAD 
  NORB=24
 $END
$MOFRZ FRZ=.T.
 IFRZ(1)=1,2,3,4,5,6,7,8,9,10,11,12,13,14,15,16,17,18
! ,19,20,21,22,23
! IFRZ(24)=24,25,26,27,28,29,30,31,32,33,34,35,36,37,38,39,40
 $END
 $SCF DIRSCF=.TRUE. $END
 $DATA 
anthracene opt C2H gaussian
C1 
C  6.0     0.00000      0.00000      0.00000
C  6.0     1.39400      0.00000      0.00000
C  6.0     2.09099      1.20724     -0.00000
C  6.0     1.39398      2.41448     -0.00000
C  6.0    -0.00002      2.41447      0.00000
C  6.0    -0.69701      1.20723      0.00000
H  1.0     1.93675     -0.94007     -0.00000
H  1.0     3.17649      1.20725     -0.00000
H  1.0     1.93672      3.35455     -0.00000
H  1.0    -1.78251      1.20722      0.00000
H  1.0    -0.54278      3.35454      0.00000
H  1.0    -0.54274     -0.94007      0.00000
 $END
 $VEC
 1  1-3.63845954E-02 1.39530416E-03-6.85935178E-04-1.23025496E-05 0.00000000E+00
 1  2 2.44063966E-03-2.08815961E-03 7.83124568E-03 0.00000000E+00 5.72391870E-02
 1  3-1.85297374E-04-1.11139308E-04 3.83585062E-04 0.00000000E+00-3.13536612E-03
 1  4-2.27895426E-03-6.86113893E-03 0.00000000E+00 9.27569961E-01 1.80091006E-02
 1  5-7.03656885E-04-5.62932187E-04 0.00000000E+00 1.67088607E-03-7.75367795E-03
 1  6-6.25544687E-03 0.00000000E+00 1.67216032E-01 1.12469181E-03-2.11664883E-03
 1  7-1.61723090E-03 0.00000000E+00 1.40208449E-03 8.21796998E-03 4.09918143E-03
 1  8 0.00000000E+00 2.71175784E-01 6.64111457E-03 9.87319815E-04-2.86033101E-04
 1  9 0.00000000E+00-6.27463547E-03 4.97466010E-03 2.35192747E-04 0.00000000E+00
 1 10 1.59520317E-01 5.33655593E-03-1.09459668E-03-2.50089735E-03 0.00000000E+00
 1 11-3.67473093E-03-7.67787451E-04 1.25233978E-02 0.00000000E+00 2.51772969E-03
 1 12-4.47918906E-03 3.66069416E-03 1.50457673E-03 1.42627647E-03-4.51412635E-03
 1 13 1.81475397E-03-2.64710208E-03 2.34130013E-03 1.05733888E-03 1.56352310E-03
 1 14 4.29373810E-03
 2  1 2.85516703E-01 1.03174537E-02-5.08476555E-04 1.27520303E-03-0.00000000E+00
 2  2 1.46132266E-02 7.40580966E-03 2.16903854E-02-0.00000000E+00 1.47867009E-02
 2  3 3.49384580E-03 2.19226760E-03 7.93385387E-04-0.00000000E+00-3.06545097E-02
 2  4 2.91270844E-03-2.78066180E-02-0.00000000E+00 9.34159483E-03-6.72657629E-03
 2  5 6.34991616E-04 2.76461910E-04-0.00000000E+00 3.62715695E-02-2.84800035E-02
 2  6-7.72758545E-03-0.00000000E+00-1.86057494E-01 3.14303860E-03-3.23692020E-03
 2  7-1.30339068E-03-0.00000000E+00-3.99697021E-02 2.15370489E-02 1.53338256E-02
 2  8-0.00000000E+00-3.83423532E-01-1.15069304E-02-1.58428005E-03 2.94022767E-05
 2  9-0.00000000E+00 2.89488808E-02 2.13421394E-02-1.24004420E-02-0.00000000E+00
 2 10 8.53490743E-01 2.26933769E-02-2.26940683E-03-2.38411652E-03-0.00000000E+00
 2 11-2.80984700E-02-1.49378153E-02 1.29392276E-02-0.00000000E+00-2.92059937E-04
 2 12-1.11688885E-02 6.52593498E-03 6.66029433E-03-5.26369583E-04-4.70230607E-03
 2 13-2.25534760E-03-1.61448405E-03 4.83202561E-03 4.49620485E-03 3.49718078E-03
 2 14 1.13488537E-02
 3  1-9.28421558E-02-2.00086404E-03-1.00158224E-03 2.56973015E-04 0.00000000E+00
 3  2 1.37588091E-02-4.80536170E-03 8.81743101E-03 0.00000000E+00 1.98643276E-02
 3  3 2.09876915E-04-4.56707975E-04-2.55013987E-04 0.00000000E+00-8.24799318E-03
 3  4-2.48618230E-03-7.03912297E-03 0.00000000E+00 7.04835966E-03-2.05322101E-03
 3  5 2.06882347E-04 3.05954632E-04 0.00000000E+00 1.78316408E-02-7.96936002E-03
 3  6-4.60688714E-03 0.00000000E+00 8.32486416E-01 2.12536562E-02-1.18007047E-04
 3  7-2.86912722E-04 0.00000000E+00-2.85137618E-02 1.07446278E-02 8.11170326E-03
 3  8 0.00000000E+00-5.38646802E-01-1.77335601E-02-4.97337306E-04 2.03246069E-03
 3  9 0.00000000E+00 3.04447245E-02 1.06560077E-02-1.11500861E-02 0.00000000E+00
 3 10-2.94420791E-02 3.26115434E-03-6.43034957E-04-6.01152796E-04 0.00000000E+00
 3 11-2.64070383E-02-7.73207939E-03 6.95260869E-03 0.00000000E+00-8.37322777E-06
 3 12-8.73551826E-04 5.23251345E-04 1.75853523E-04-8.07174458E-04-6.21621920E-04
 3 13 1.26563577E-03-4.51870839E-04-4.32800861E-04 2.36840768E-03 3.26759984E-05
 3 14 3.59678783E-04
 4  1 7.91548171E-01 1.67291383E-02 4.53546136E-05-1.20302783E-03 0.00000000E+00
 4  2-7.36512103E-02-1.24702046E-02-3.24997407E-02 0.00000000E+00-7.68315691E-02
 4  3-8.87805440E-03-3.32204786E-03-2.98505367E-04 0.00000000E+00 6.29756553E-02
 4  4-1.75538316E-02 3.28797930E-02 0.00000000E+00-1.62864700E-01 3.13713824E-03
 4  5-7.59438828E-04 4.06125887E-04 0.00000000E+00-5.47748416E-02 4.14685360E-02
 4  6 7.47382181E-03 0.00000000E+00 3.75615719E-01 3.19693335E-03 1.58225332E-03
 4  7-1.09882911E-04 0.00000000E+00 6.38288800E-02-3.62447100E-02-2.84505892E-02
 4  8 0.00000000E+00 4.39335202E-01 1.67164789E-02 1.11366539E-03-1.04535268E-03
 4  9 0.00000000E+00-6.16362906E-02-4.00807858E-02 2.79244142E-02 0.00000000E+00
 4 10 1.70759368E-02-9.70636617E-03-2.80145321E-04 2.22814071E-03 0.00000000E+00
 4 11 6.01594365E-02 3.76441187E-02-2.29646637E-02 0.00000000E+00 1.39840210E-03
 4 12 1.01810549E-02-8.24212383E-03-3.68132625E-03 7.84725648E-04 1.35453026E-02
 4 13-1.73743707E-04 8.50568199E-03-5.39167124E-03-9.38860944E-03-2.57409506E-03
 4 14-5.53453032E-03
 5  1 2.40187018E-01 1.53621712E-03 8.42760642E-04 2.48708456E-05-0.00000000E+00
 5  2 9.28961724E-03 4.18410607E-03-1.15562596E-02-0.00000000E+00 9.27062936E-01
 5  3 2.59611174E-02 1.69378917E-04 1.07526026E-04-0.00000000E+00-1.37161104E-02
 5  4 4.07571923E-03 1.49898843E-02-0.00000000E+00 4.81865244E-02 6.32777368E-03
 5  5-1.97615293E-03 3.08669079E-04-0.00000000E+00 7.75715230E-05 1.26625917E-02
 5  6 5.58353749E-03-0.00000000E+00-1.03767624E-01-5.06807726E-03 3.25692837E-03
 5  7 2.34327783E-03-0.00000000E+00 4.58592158E-03-9.73263015E-03 4.39036431E-03
 5  8-0.00000000E+00-1.57519528E-01-5.39105693E-03 1.17327593E-03-2.85329943E-04
 5  9-0.00000000E+00 1.77481755E-02-7.97470382E-03-1.42738832E-02-0.00000000E+00
 5 10-1.89602986E-01-6.22905850E-03 3.71347433E-03 2.46894507E-03-0.00000000E+00
 5 11-8.44113938E-03-9.19065791E-03-1.95887871E-02-0.00000000E+00-6.48115071E-04
 5 12 1.05752223E-02-6.29889518E-03-5.92107285E-03-1.62215727E-03-9.88223580E-05
 5 13 1.54204499E-03-3.71731495E-03-1.48308978E-03 2.07681534E-03-2.77812451E-03
 5 14-8.63064056E-03
 6  1-4.58995658E-01-1.94477856E-02 1.49241908E-02-1.78398281E-03 0.00000000E+00
 6  2 7.14118397E-02 2.21422063E-02 2.66769592E-02 0.00000000E+00 3.64603870E-01
 6  3-2.09323436E-02-3.36151676E-02-5.98181381E-02 0.00000000E+00-9.66253899E-02
 6  4-5.87510470E-03-4.49211770E-02 0.00000000E+00-2.93132651E-01-5.28175556E-02
 6  5 3.36374818E-02 5.15157138E-02 0.00000000E+00 2.89039245E-02-8.58412580E-03
 6  6 8.10518043E-03 0.00000000E+00 2.89507884E-01 8.84067856E-03 3.55744562E-03
 6  7-4.56299676E-03 0.00000000E+00-5.78896004E-02 2.25900743E-02 1.41049280E-02
 6  8 0.00000000E+00 5.01935393E-01 1.45020273E-02-8.13626340E-03 3.01029813E-03
 6  9 0.00000000E+00 5.51649714E-02 2.66379675E-02-2.53064229E-02 0.00000000E+00
 6 10 4.40904611E-01 1.21606280E-02 1.47610039E-03 3.93927319E-03 0.00000000E+00
 6 11-4.77249324E-02-3.98580871E-02 5.33643013E-03 0.00000000E+00 2.93438608E-03
 6 12 7.13246589E-03 2.97822565E-03 7.26872197E-03-1.29742036E-02-7.79757463E-03
 6 13-1.52343862E-03-9.57345473E-03 7.72490174E-03 1.50357956E-02-9.58790337E-03
 6 14-9.11785806E-03
 7  1-8.95737025E-02 1.74078815E-01 1.23067322E-03 6.37289102E-02-0.00000000E+00
 7  2 8.38233505E-02-3.36072685E-03-1.44888075E-02-0.00000000E+00-1.97542953E-02
 7  3 3.38782960E-02-8.51031259E-02-3.33435444E-02-0.00000000E+00 4.08613001E-02
 7  4-3.09737733E-02 1.61388434E-02-0.00000000E+00-1.61321744E-02 3.37924856E-02
 7  5-1.33173803E-02 7.93343434E-02-0.00000000E+00-3.36035234E-02 3.51725261E-02
 7  6 2.76761540E-02-0.00000000E+00-8.60857345E-02 1.68716238E-01-6.43776330E-02
 7  7-2.75600909E-02-0.00000000E+00 1.38016272E-01-2.04345579E-02-1.86339955E-02
 7  8-0.00000000E+00-1.33205708E-01 2.72291168E-01 1.22302236E-02-7.02298882E-02
 7  9-0.00000000E+00 1.39244595E-01-1.16217726E-02 6.41589072E-03-0.00000000E+00
 7 10-1.28858976E-01 2.49625422E-01 7.07400994E-02 2.59306274E-02-0.00000000E+00
 7 11 2.00598225E-01 2.71947496E-02-1.22731462E-03-0.00000000E+00 1.16236903E-02
 7 12 1.75706649E-02-2.75716781E-04-5.03759006E-03 3.25007345E-02 5.61015200E-03
 7 13 5.81165402E-02 1.44940700E-02 6.56377758E-02 1.28383948E-02 2.82284221E-02
 7 14-8.78735684E-03
 8  1 1.28845526E-01-2.57088792E-01-1.63761343E-02-3.01531777E-02 0.00000000E+00
 8  2-1.82881154E-01 2.89804852E-03 5.38478976E-03 0.00000000E+00 6.89229315E-02
 8  3-1.38505809E-01 8.58057076E-02 2.70998953E-02 0.00000000E+00-1.27839626E-01
 8  4 8.08396452E-03-7.01721885E-03 0.00000000E+00-6.09812914E-02 1.19170366E-01
 8  5-1.75649507E-02 1.03199668E-01 0.00000000E+00 1.17450171E-01-1.83374985E-02
 8  6-3.52636946E-05 0.00000000E+00-1.28714905E-01 2.58046884E-01-1.72925259E-02
 8  7-2.66420196E-02 0.00000000E+00 1.81637322E-01 1.03967495E-02 1.67006538E-02
 8  8 0.00000000E+00-6.62639719E-02 1.28566714E-01 9.57178975E-02 3.87702715E-02
 8  9 0.00000000E+00 1.15962231E-01 1.19714626E-02-2.96078873E-03 0.00000000E+00
 8 10 6.36097334E-02-1.26321508E-01-1.45748730E-02 9.85928862E-02 0.00000000E+00
 8 11-1.04226008E-01-7.94822419E-03 1.43289949E-02 0.00000000E+00-3.97484514E-02
 8 12-7.94169765E-03 4.06532654E-02 1.32008910E-02 7.55192778E-02 1.22785737E-02
 8 13-3.55168443E-02-1.56184144E-02 3.61510764E-02 1.36726294E-02-7.66319221E-02
 8 14-1.50541167E-02
 9  1 8.82600163E-02-1.76524717E-01-1.48345609E-01 8.75069523E-02 0.00000000E+00
 9  2-1.47985239E-01-1.74664608E-02 2.22140468E-02 0.00000000E+00 7.65366583E-02
 9  3-1.51982875E-01 1.62006206E-01 1.30710317E-01 0.00000000E+00-9.78419308E-02
 9  4 5.74739753E-02 6.35879150E-02 0.00000000E+00 5.58797097E-02-1.03971471E-01
 9  5-2.70415227E-02-1.65604680E-01 0.00000000E+00-8.14304941E-02-1.35415163E-02
 9  6-4.98475959E-02 0.00000000E+00 8.42028708E-02-1.72594443E-01-9.28878929E-02
 9  7 4.55954310E-02 0.00000000E+00-1.31809080E-01-3.37851636E-02 4.78695872E-03
 9  8 0.00000000E+00-6.10700350E-02 1.14483090E-01-9.79689814E-02-6.59044555E-02
 9  9 0.00000000E+00 1.23501697E-01-3.43264113E-02-2.25265346E-02 0.00000000E+00
 9 10-9.03078427E-02 1.85411502E-01-1.78275440E-02 9.19605286E-02 0.00000000E+00
 9 11 1.30215002E-01-2.47788272E-02-1.37859132E-02 0.00000000E+00-8.07869979E-02
 9 12-3.39865835E-02-5.79799625E-02-2.83124676E-02-6.38652858E-02-1.19543303E-02
 9 13 7.72475848E-02 2.44595021E-02 3.49611258E-02 3.81209269E-03-5.62737462E-02
 9 14-7.93816030E-03
10  1 2.52440477E-02-5.08940989E-02 1.83801683E-01-8.63479798E-02-0.00000000E+00
10  2-4.12343383E-02 5.23335938E-02-8.57129955E-03-0.00000000E+00-9.86483051E-02
10  3 1.99799891E-01-1.45719954E-02-6.71461012E-02-0.00000000E+00 1.79281878E-01
10  4 2.22185131E-02-3.84962635E-02-0.00000000E+00 7.04275785E-02-1.45011579E-01
10  5-4.71006937E-02-1.48719136E-01-0.00000000E+00-1.31894037E-01-3.00497927E-02
10  6-2.52808537E-02-0.00000000E+00 2.61364295E-02-5.53669159E-02-1.83422454E-01
10  7 8.81548363E-02-0.00000000E+00-4.11255610E-02-5.48092859E-02 1.32539240E-02
10  8-0.00000000E+00-9.62635727E-02 1.94600580E-01 2.13301218E-02 7.81775343E-02
10  9-0.00000000E+00 1.84076304E-01-2.22195003E-02 3.21039819E-02-0.00000000E+00
10 10 7.28230324E-02-1.43765184E-01 4.57998893E-02 1.48669170E-01-0.00000000E+00
10 11-1.53210359E-01 2.48253986E-02 1.70129806E-02-0.00000000E+00 1.08820176E-01
10 12 3.78308512E-02-8.17871517E-02-3.01869073E-02-2.89222458E-02-1.25084649E-02
10 13-8.11550210E-02-2.87037417E-02 1.11641796E-01 3.93157752E-02-2.77843621E-02
10 14-6.90912982E-03
11  1-4.84286904E-02 1.03796291E-01-1.01707150E-01 1.64829282E-02-0.00000000E+00
11  2 5.60853498E-02-4.86868432E-02-3.22787097E-02-0.00000000E+00 5.85932432E-02
11  3-1.22871710E-01-4.95819902E-02 1.14659880E-01-0.00000000E+00-6.38005395E-02
11  4-4.88247455E-03 7.92499223E-02-0.00000000E+00 1.00038109E-01-1.98211810E-01
11  5-1.65746442E-01-4.28070259E-02-0.00000000E+00-2.00779732E-01-8.61736129E-02
11  6-2.66367813E-02-0.00000000E+00-5.63720485E-02 1.10776878E-01-1.29755523E-01
11  7 1.09621290E-01-0.00000000E+00 1.40179154E-01-4.09511157E-02 4.41620675E-02
11  8-0.00000000E+00 1.17625564E-02-2.52318252E-02 2.10588843E-01 5.20130295E-02
11  9-0.00000000E+00-5.88388175E-02 2.99168757E-02 1.14794774E-02-0.00000000E+00
11 10 3.54968005E-02-7.58916940E-02 5.94877254E-02-1.65620639E-01-0.00000000E+00
11 11-5.55051290E-02 5.60223161E-02-5.96167866E-02-0.00000000E+00-1.17656476E-01
11 12-6.17823303E-02-1.77100662E-01-7.97543356E-02 7.62142609E-02 3.74840700E-02
11 13-6.28810878E-02-2.01796423E-02-5.01657281E-02-3.16228092E-02 7.18547900E-02
11 14 3.78215872E-02
12  1-1.31631907E-02 2.82302167E-02-1.72505054E-01-1.41645249E-01 0.00000000E+00
12  2 3.22131070E-02-7.54440486E-02-5.64764394E-02 0.00000000E+00 4.32053489E-03
12  3-1.03232478E-02 1.43097890E-01-7.26749967E-02 0.00000000E+00 2.59975699E-02
12  4 4.70288614E-02-2.50087200E-02 0.00000000E+00 1.64167659E-02-2.92723703E-02
12  5 1.27584518E-01-9.90709800E-02 0.00000000E+00-1.68160726E-02 2.91259481E-02
12  6-4.33165593E-02 0.00000000E+00-1.67536095E-02 3.20408295E-02 2.52762646E-02
12  7 2.40379400E-01 0.00000000E+00 6.04624222E-02 2.24632376E-02 8.82251595E-02
12  8 0.00000000E+00-6.77462266E-03 1.55803343E-02-1.88204748E-02 2.10179858E-01
12  9 0.00000000E+00 1.03675695E-02-9.87733760E-03 8.73592562E-02 0.00000000E+00
12 10-4.64596662E-03 4.05279374E-03-1.99610867E-01-8.08467950E-02 0.00000000E+00
12 11 4.21859373E-02-5.95384995E-02-1.50929653E-02 0.00000000E+00 6.32914417E-02
12 12 3.65648229E-02 5.10607061E-02 3.95520287E-02 1.34934756E-01 8.31255962E-02
12 13 1.07394641E-01 6.89058132E-02 1.05302851E-01 6.19956190E-02 1.31157535E-01
12 14 8.12884408E-02
13  1-5.73797005E-02 1.23447168E-01-8.92453054E-02-9.85808596E-02-0.00000000E+00
13  2 3.18077299E-02-1.03942809E-01-1.21786265E-01-0.00000000E+00 5.78017177E-02
13  3-1.24381675E-01-4.18511896E-02 1.20271343E-01-0.00000000E+00-1.28049829E-02
13  4-8.09876465E-02 1.37078398E-01-0.00000000E+00-5.29051341E-02 1.18352729E-01
13  5 1.37119282E-01-2.23988841E-02-0.00000000E+00 6.69572756E-03 1.63660455E-01
13  6-1.17866552E-02-0.00000000E+00 5.45725656E-02-1.17583154E-01-8.92431170E-02
13  7-9.81966038E-02-0.00000000E+00-2.50759810E-02-7.68964055E-02-1.41173453E-01
13  8-0.00000000E+00-5.59048590E-02 1.23897728E-01-3.94162658E-02 1.22428704E-01
13  9-0.00000000E+00 7.53949403E-03-5.00321558E-02 1.52925144E-01-0.00000000E+00
13 10 5.60692222E-02-1.22923833E-01 1.30290103E-01-3.10478176E-02-0.00000000E+00
13 11-1.97698822E-02 1.66393975E-01 1.72045745E-02-0.00000000E+00-1.41218310E-01
13 12-5.57330081E-02 1.40172981E-01 5.54073305E-02-1.40680222E-01-5.39221166E-02
13 13-1.44881703E-01-5.24191872E-02 1.37060608E-01 5.63192782E-02 1.40452701E-01
13 14 5.59376348E-02
14  1-1.31132403E-03 3.02041063E-03-1.01155556E-01 2.07043484E-01-0.00000000E+00
14  2 2.19085708E-02-7.40759559E-03 8.49567231E-02-0.00000000E+00 3.41867251E-03
14  3-7.93468145E-03 1.35494674E-01-1.19589983E-01-0.00000000E+00-3.77648142E-02
14  4 6.69541633E-02-6.59590005E-02-0.00000000E+00 1.22397750E-02-3.35607916E-02
14  5 2.54594772E-01-1.11891926E-01-0.00000000E+00-1.88757583E-03 1.01588001E-01
14  6-4.01403078E-02-0.00000000E+00 4.10790842E-03-9.73744215E-03-1.41721815E-01
14  7 1.57267937E-01-0.00000000E+00-2.63283070E-02-3.00516646E-02 6.37980053E-02
14  8-0.00000000E+00-6.68674793E-03 1.74925584E-02 1.72445001E-01-9.97953519E-02
14  9-0.00000000E+00 3.33523106E-02 8.24001236E-02-5.15298788E-02-0.00000000E+00
14 10-1.95337247E-02 4.92451822E-02 2.39790765E-01-1.36853469E-01-0.00000000E+00
14 11 2.50755863E-02 8.37204292E-02-5.07921578E-02-0.00000000E+00 1.05668901E-01
14 12 7.19348653E-02 1.47933875E-01 1.09239997E-01 3.80334009E-02 2.13388770E-02
14 13-1.25892120E-01-9.92987050E-02-9.86051822E-02-7.54323074E-02-8.37259763E-02
14 14-6.22353434E-02
15  1-1.96336080E-02 4.16588780E-02 1.78678625E-01 2.15516409E-01-0.00000000E+00
15  2 8.54406227E-02 6.30996028E-02 1.20040424E-01-0.00000000E+00-1.28049226E-02
15  3 3.60098062E-02-1.72745397E-01 1.56891337E-01-0.00000000E+00 1.59016975E-03
15  4-6.23102471E-02 6.53007321E-02-0.00000000E+00 5.08626871E-03-1.44291635E-02
15  5 6.19958387E-02-5.54666830E-02-0.00000000E+00 1.63505729E-02 8.93451074E-03
15  6-1.40496753E-02-0.00000000E+00 1.91217825E-02-3.88515229E-02 1.90522223E-01
15  7 2.24241127E-01-0.00000000E+00-8.60217131E-02 1.01415564E-01 1.20303084E-01
15  8-0.00000000E+00 1.26882790E-02-4.02485360E-02-1.88954520E-01 1.39095594E-01
15  9-0.00000000E+00 1.41581474E-02-2.98610061E-02 4.64662144E-02-0.00000000E+00
15 10-2.85433683E-03 1.14870633E-02 7.46099329E-02-5.27702849E-02-0.00000000E+00
15 11-3.79599279E-02 9.25938025E-03 2.32373126E-02-0.00000000E+00-1.29962184E-01
15 12-9.54852150E-02 3.27803199E-02 2.44798325E-02 1.55574328E-01 1.15617722E-01
15 13-4.63671160E-02-3.93002966E-02 1.20198591E-01 1.07123908E-01-1.52551480E-01
15 14-1.14194594E-01
16  1-2.11086877E-03 4.42903399E-03-3.80962668E-02-2.13031810E-01-0.00000000E+00
16  2 9.40543778E-03-5.44122741E-02-1.25102399E-01-0.00000000E+00 1.91978280E-02
16  3-4.32978673E-02 4.10722280E-02 1.79010694E-02-0.00000000E+00-1.52309270E-02
16  4 1.18621075E-02 4.12934162E-02-0.00000000E+00 2.17505022E-02-4.40001097E-02
16  5 1.90202980E-02-4.99648082E-02-0.00000000E+00-4.36992338E-02-2.96053917E-02
16  6-3.58915201E-02-0.00000000E+00 2.83112625E-03-8.95479490E-03 1.70190753E-01
16  7 1.49746626E-01-0.00000000E+00-6.20319311E-03 1.09298488E-01 9.96002244E-02
16  8-0.00000000E+00-1.16905740E-02 2.98506703E-02-1.88979288E-01-2.90329673E-01
16  9-0.00000000E+00 4.67069332E-03-4.05437225E-02-1.22971245E-01-0.00000000E+00
16 10-5.22047496E-03 1.22442202E-02 1.81238198E-01 3.01872989E-01-0.00000000E+00
16 11 2.03017127E-02 1.12845579E-01 1.40878178E-01-0.00000000E+00-2.74552584E-02
16 12-2.00285699E-02-2.05452695E-02-8.06218468E-03 1.55744610E-01 1.14324862E-01
16 13-1.26986057E-01-9.49214198E-02-1.01463953E-01-7.89449931E-02 1.55592673E-01
16 14 1.20864883E-01
17  1 2.09420048E-04 7.85303902E-03 2.29077459E-01-1.35367848E-01-0.00000000E+00
17  2-6.25504422E-02 8.48165869E-02-8.30293870E-02-0.00000000E+00-4.31241168E-03
17  3 4.28031596E-05-2.13662524E-01 1.16176273E-01-0.00000000E+00 7.08144084E-02
17  4-1.18065329E-01 1.14091332E-01-0.00000000E+00 4.47618602E-03-1.02982683E-02
17  5 1.86105046E-01-1.30718009E-01-0.00000000E+00-6.04478269E-02 1.45605220E-01
17  6-4.17722738E-02-0.00000000E+00-1.97502232E-04-7.91666392E-03-2.19638307E-01
17  7 1.30495779E-01-0.00000000E+00 5.45548083E-02-1.20920258E-01 2.78405349E-02
17  8-0.00000000E+00-2.10436714E-03 1.54527470E-02 2.05584316E-01-1.02657936E-01
17  9-0.00000000E+00-5.56460890E-02 7.54972052E-02-5.31955950E-02-0.00000000E+00
17 10 3.30871701E-03-1.17594674E-02-1.96901208E-01 1.41130897E-01-0.00000000E+00
17 11 4.13494627E-02-8.89912076E-02 4.50440005E-02-0.00000000E+00-1.51908675E-01
17 12-1.21223636E-01 1.41950364E-01 1.16730791E-01 1.24209363E-02 1.09853155E-02
17 13 1.49555918E-01 1.30028738E-01-1.48434637E-01-1.29906993E-01 4.17629228E-03
17 14 2.59265762E-03
18  1-8.68804382E-02 8.63640947E-03-8.20711014E-02 9.46302786E-03-0.00000000E+00
18  2-7.47312104E-02-7.41799141E-02-3.68826706E-02-0.00000000E+00-4.29384161E-02
18  3 2.09564270E-01 1.99629030E-01 3.14306515E-01-0.00000000E+00 1.58395806E-01
18  4 3.94615921E-02 1.19619595E-01-0.00000000E+00-1.73487431E-01 2.17018976E-01
18  5-1.81728715E-01-2.82637660E-01-0.00000000E+00 1.65995057E-01-9.18232270E-02
18  6-1.00064986E-01-0.00000000E+00 3.88501974E-02 3.80931279E-02-1.31757339E-02
18  7 3.06813094E-02-0.00000000E+00-2.31696195E-02-5.20015621E-03 6.42415579E-02
18  8-0.00000000E+00 1.09371953E-01-3.82722122E-02 3.17145861E-02-2.10616687E-02
18  9-0.00000000E+00-1.25149498E-02-5.56992870E-03-2.59070331E-02-0.00000000E+00
18 10 8.40373734E-02-5.56212227E-03-6.39437556E-04-2.14968307E-02-0.00000000E+00
18 11-1.14620226E-02 3.01005804E-02-1.81201146E-02-0.00000000E+00-3.08876129E-02
18 12-3.35261821E-02-2.35622963E-02-2.85457563E-02 2.70969059E-02 4.56917144E-02
18 13-7.13826380E-03 1.59974239E-02-3.55069955E-02-1.89730082E-02 4.92170580E-02
18 14 3.82642406E-02
19  1-0.00000000E+00-0.00000000E+00-0.00000000E+00-0.00000000E+00 1.79446079E-01
19  2-0.00000000E+00-0.00000000E+00-0.00000000E+00 1.13344079E-01-0.00000000E+00
19  3-0.00000000E+00-0.00000000E+00-0.00000000E+00 5.14714995E-02-0.00000000E+00
19  4-0.00000000E+00-0.00000000E+00 9.60650180E-03-0.00000000E+00-0.00000000E+00
19  5-0.00000000E+00-0.00000000E+00 5.01997170E-02-0.00000000E+00-0.00000000E+00
19  6-0.00000000E+00 7.76843992E-03-0.00000000E+00-0.00000000E+00-0.00000000E+00
19  7-0.00000000E+00 1.76617320E-01-0.00000000E+00-0.00000000E+00-0.00000000E+00
19  8 1.10360943E-01-0.00000000E+00-0.00000000E+00-0.00000000E+00-0.00000000E+00
19  9 3.20923902E-01-0.00000000E+00-0.00000000E+00-0.00000000E+00 2.39169336E-01
19 10-0.00000000E+00-0.00000000E+00-0.00000000E+00-0.00000000E+00 3.22064388E-01
19 11-0.00000000E+00-0.00000000E+00-0.00000000E+00 2.39055116E-01-0.00000000E+00
19 12-0.00000000E+00-0.00000000E+00-0.00000000E+00-0.00000000E+00-0.00000000E+00
19 13-0.00000000E+00-0.00000000E+00-0.00000000E+00-0.00000000E+00-0.00000000E+00
19 14-0.00000000E+00
20  1 0.00000000E+00 0.00000000E+00 0.00000000E+00 0.00000000E+00 8.10837268E-02
20  2 0.00000000E+00 0.00000000E+00 0.00000000E+00 4.78374133E-02 0.00000000E+00
20  3 0.00000000E+00 0.00000000E+00 0.00000000E+00 3.31160400E-01 0.00000000E+00
20  4 0.00000000E+00 0.00000000E+00 2.43512230E-01 0.00000000E+00 0.00000000E+00
20  5 0.00000000E+00 0.00000000E+00 3.75224748E-01 0.00000000E+00 0.00000000E+00
20  6 0.00000000E+00 2.75336398E-01 0.00000000E+00 0.00000000E+00 0.00000000E+00
20  7 0.00000000E+00 1.33873460E-01 0.00000000E+00 0.00000000E+00 0.00000000E+00
20  8 8.90385718E-02 0.00000000E+00 0.00000000E+00 0.00000000E+00 0.00000000E+00
20  9-1.25246882E-01 0.00000000E+00 0.00000000E+00 0.00000000E+00-1.27143729E-01
20 10 0.00000000E+00 0.00000000E+00 0.00000000E+00 0.00000000E+00-1.46685953E-01
20 11 0.00000000E+00 0.00000000E+00 0.00000000E+00-1.43849216E-01 0.00000000E+00
20 12 0.00000000E+00 0.00000000E+00 0.00000000E+00 0.00000000E+00 0.00000000E+00
20 13 0.00000000E+00 0.00000000E+00 0.00000000E+00 0.00000000E+00 0.00000000E+00
20 14 0.00000000E+00
21  1 0.00000000E+00 0.00000000E+00 0.00000000E+00 0.00000000E+00 3.33879462E-01
21  2 0.00000000E+00 0.00000000E+00 0.00000000E+00 2.74394009E-01 0.00000000E+00
21  3 0.00000000E+00 0.00000000E+00 0.00000000E+00 1.90442117E-01 0.00000000E+00
21  4 0.00000000E+00 0.00000000E+00 1.48810015E-01 0.00000000E+00 0.00000000E+00
21  5 0.00000000E+00 0.00000000E+00-1.31377257E-01 0.00000000E+00 0.00000000E+00
21  6 0.00000000E+00-1.02575506E-01 0.00000000E+00 0.00000000E+00 0.00000000E+00
21  7 0.00000000E+00-3.18056726E-01 0.00000000E+00 0.00000000E+00 0.00000000E+00
21  8-2.64704791E-01 0.00000000E+00 0.00000000E+00 0.00000000E+00 0.00000000E+00
21  9-1.67278120E-01 0.00000000E+00 0.00000000E+00 0.00000000E+00-1.39515724E-01
21 10 0.00000000E+00 0.00000000E+00 0.00000000E+00 0.00000000E+00 1.41200154E-01
21 11 0.00000000E+00 0.00000000E+00 0.00000000E+00 1.14719964E-01 0.00000000E+00
21 12 0.00000000E+00 0.00000000E+00 0.00000000E+00 0.00000000E+00 0.00000000E+00
21 13 0.00000000E+00 0.00000000E+00 0.00000000E+00 0.00000000E+00 0.00000000E+00
21 14 0.00000000E+00
22  1-0.00000000E+00-0.00000000E+00-0.00000000E+00-0.00000000E+00-1.57021160E-01
22  2-0.00000000E+00-0.00000000E+00-0.00000000E+00-1.72067949E-01-0.00000000E+00
22  3-0.00000000E+00-0.00000000E+00-0.00000000E+00 5.65485587E-01-0.00000000E+00
22  4-0.00000000E+00-0.00000000E+00 3.69642793E-01-0.00000000E+00-0.00000000E+00
22  5-0.00000000E+00-0.00000000E+00-5.47410436E-01-0.00000000E+00-0.00000000E+00
22  6-0.00000000E+00-3.42880814E-01-0.00000000E+00-0.00000000E+00-0.00000000E+00
22  7-0.00000000E+00 1.29280273E-01-0.00000000E+00-0.00000000E+00-0.00000000E+00
22  8 1.47801839E-01-0.00000000E+00-0.00000000E+00-0.00000000E+00-0.00000000E+00
22  9 1.63603948E-01-0.00000000E+00-0.00000000E+00-0.00000000E+00 1.47755188E-01
22 10-0.00000000E+00-0.00000000E+00-0.00000000E+00-0.00000000E+00-1.55629263E-01
22 11-0.00000000E+00-0.00000000E+00-0.00000000E+00-1.37818644E-01-0.00000000E+00
22 12-0.00000000E+00-0.00000000E+00-0.00000000E+00-0.00000000E+00-0.00000000E+00
22 13-0.00000000E+00-0.00000000E+00-0.00000000E+00-0.00000000E+00-0.00000000E+00
22 14-0.00000000E+00
23  1-0.00000000E+00-0.00000000E+00-0.00000000E+00-0.00000000E+00-2.16174486E-01
23  2-0.00000000E+00-0.00000000E+00-0.00000000E+00-5.91504055E-01-0.00000000E+00
23  3-0.00000000E+00-0.00000000E+00-0.00000000E+00 1.19456449E-01-0.00000000E+00
23  4-0.00000000E+00-0.00000000E+00 3.21856427E-01-0.00000000E+00-0.00000000E+00
23  5-0.00000000E+00-0.00000000E+00-1.21198630E-01-0.00000000E+00-0.00000000E+00
23  6-0.00000000E+00-3.11461796E-01-0.00000000E+00-0.00000000E+00-0.00000000E+00
23  7-0.00000000E+00 2.09762525E-01-0.00000000E+00-0.00000000E+00-0.00000000E+00
23  8 5.77835961E-01-0.00000000E+00-0.00000000E+00-0.00000000E+00-0.00000000E+00
23  9-3.32857740E-01-0.00000000E+00-0.00000000E+00-0.00000000E+00-8.42560205E-01
23 10-0.00000000E+00-0.00000000E+00-0.00000000E+00-0.00000000E+00 3.37074621E-01
23 11-0.00000000E+00-0.00000000E+00-0.00000000E+00 8.48605902E-01-0.00000000E+00
23 12-0.00000000E+00-0.00000000E+00-0.00000000E+00-0.00000000E+00-0.00000000E+00
23 13-0.00000000E+00-0.00000000E+00-0.00000000E+00-0.00000000E+00-0.00000000E+00
23 14-0.00000000E+00
24  1-0.00000000E+00-0.00000000E+00-0.00000000E+00-0.00000000E+00 4.43696497E-01
24  2-0.00000000E+00-0.00000000E+00-0.00000000E+00 3.64534729E-01-0.00000000E+00
24  3-0.00000000E+00-0.00000000E+00-0.00000000E+00-2.18763386E-01-0.00000000E+00
24  4-0.00000000E+00-0.00000000E+00-1.55951507E-01-0.00000000E+00-0.00000000E+00
24  5-0.00000000E+00-0.00000000E+00-2.59601471E-01-0.00000000E+00-0.00000000E+00
24  6-0.00000000E+00-1.79882381E-01-0.00000000E+00-0.00000000E+00-0.00000000E+00
24  7-0.00000000E+00 4.61347189E-01-0.00000000E+00-0.00000000E+00-0.00000000E+00
24  8 3.77455059E-01-0.00000000E+00-0.00000000E+00-0.00000000E+00-0.00000000E+00
24  9-1.76383972E-01-0.00000000E+00-0.00000000E+00-0.00000000E+00-2.18360470E-01
24 10-0.00000000E+00-0.00000000E+00-0.00000000E+00-0.00000000E+00-1.77371950E-01
24 11-0.00000000E+00-0.00000000E+00-0.00000000E+00-2.17357545E-01-0.00000000E+00
24 12-0.00000000E+00-0.00000000E+00-0.00000000E+00-0.00000000E+00-0.00000000E+00
24 13-0.00000000E+00-0.00000000E+00-0.00000000E+00-0.00000000E+00-0.00000000E+00
24 14-0.00000000E+00
 $END
