!   File created by MacMolPlt 7.7.2
 $CONTRL SCFTYP=MCSCF RUNTYP=ENERGY COORD=UNIQUE  MAXIT=30 MULT=1 $END
 $SYSTEM TIMLIM=525600 MEMORY=2185666 $END
 $MCSCF CISTEP=GUGA MAXIT=200 QUAD=.F. $END
 $DRT    GROUP=C1  FORS=.TRUE. NMCC=0 NDOC=1 NVAL=1 $END
 $GUGDIA NSTATE=2 PRTTOL=0.001 $END
 $GUGDM2 WSTATE(1)=1.0,0.0 $END
 $BASIS GBASIS=N31 NGAUSS=6  NDFUNC=1 NPFUNC=1  $END
 $GUESS GUESS=HUCKEL
 $END
  GUESS=MOREAD NORB=24
 $SCF DIRSCF=.TRUE. $END
 $DATA
 H2 CAS
C1
H  1.0     0.00000      0.00000     -0.37000
H  1.0     0.00000      0.00000      0.37000
 $END
